 NOTE: Siesta V5 introduces some new defaults for basis-set generation
 NOTE: which might lead to slightly different numerical results.
 NOTE: Please see the manual for full details and compatibility measures.

reinit: Reading from standard input
reinit: Dumping input in INPUT_TMP.66113
************************** Dump of input data file ****************************
# FDF file for Fe3GeTe2
# General System descriptors
SystemName Fe3GeTe2                  # Descriptive name of the system
SystemLabel Fe3GeTe2_relax           # Short name for naming files
NumberOfAtoms           6            # Number of atoms
NumberOfSpecies         3            # Number of species
%block Chemical_Species_Label
  1  26  Fe
  2  32  Ge
  3  52  Te
%endblock Chemical_Species_Label
PAO.BasisSize      DZP
PAO.EnergyShift    0.001 Ry
# Lattice, coordinates, k-sampling
%block AtomicCoordinatesAndAtomicSpecies
       2.3659053000      1.7565516000     12.6863155300                 3
       2.3659053200      1.7565515200      7.5354052800                 3
       0.3378719300      2.9274093600     10.1108346300                 2
       0.3378767100      0.5856540700     11.3527281700                 1
       0.3378767400      0.5856540900      8.8689175800                 1
       2.3659139900      1.7565353000     10.1108330000                 1
%endblock AtomicCoordinatesAndAtomicSpecies
%block LatticeVectors
   4.097694   0.000000   0.000000
   -2.048847   3.548707   0.000000
   0.000000   0.000000  30.00000
%endblock LatticeVectors
%block kgrid_Monkhorst_Pack
  30   0   0
  0   30   0
  0   0   1
%endblock kgrid_Monkhorst_Pack
# DFT, Grid, SCF
XC.functional          GGA
XC.authors             PBE
SpinPolarized          .true.       # Spin polarized calculation
MeshCutoff              1200 Ry     # Equivalent planewave cutoff for the grid10
MaxSCFIterations        300         # Maximum number of SCF iterations per step
DM.MixingWeight         0.1         # New DM amount for next SCF cycle
DM.Tolerance            1.d-4       # Tolerance in maximum difference
                                    # between input and output DM
SCF.Mixer.History       4           # Number of SCF steps between pulay mixing
# Eigenvalue problem: order-N or diagonalization
SolutionMethod          diagon      # OrderN or Diagon
ElectronicTemperature   5 K        # Temp. for Fermi smearing
# Molecular dynamics and relaxations
MD.TypeOfRun            CG
MD.Steps                1000
MD.MaxCGDispl           0.05 Ang
MD.MaxForceTol          0.005 eV/Ang
MD.UseSaveXV            T
MD.UseSaveCG            T
# Output options
WriteCoorInitial        .true.
WriteCoorStep           .true.
WriteForces             .true.
WriteKpoints            .false.
WriteEigenvalues        .false.
WriteKbands             .false.
WriteBands              .false.
WriteMullikenPop        1            # Write Mulliken Population Analysis
WriteCoorXmol           .false.
WriteMDCoorXmol         .false.
WriteMDhistory          .false.
WriteCoorXmol           .false.
# Options for saving/reading information
DM.UseSaveDM             T           # Use DM Continuation files
MD.UseSaveXV            .false.      # Use stored positions and velocities
MD.UseSaveCG            .false.      # Use stored positions and velocities
SaveRho                  T           # Write valence pseudocharge at the mesh
SaveDeltaRho             T           # Write RHOscf-RHOatm at the mesh
SaveElectrostaticPotential .false.   # Write the total elect. pot. at the mesh
SaveTotalPotential      .false.      # Write the total pot. at the mesh
WriteSiestaDim          .false.      # Write minimum dim to siesta.h and stop
WriteDenchar             T           # Write information for DENCHAR
Diag.ParallelOverK       T
************************** End of input data file *****************************

reinit: -----------------------------------------------------------------------
reinit: System Name: Fe3GeTe2
reinit: -----------------------------------------------------------------------
reinit: System Label: Fe3GeTe2_relax
reinit: -----------------------------------------------------------------------

NOTE on units for spin output:
{S} is the spin magnetic moment, in units of the Bohr magneton,
assuming a g-factor for the electron spin of exactly 2.
The spin magnetic moment is then numerically equal to the charge inbalance,
in units of electrons, between the spin-up and -down channels.

initatom: Reading input for the pseudopotentials and atomic orbitals ----------
Species number:   1 Atomic number:   26 Label: Fe
Species number:   2 Atomic number:   32 Label: Ge
Species number:   3 Atomic number:   52 Label: Te

Ground state valence configuration (from tables):   4s02  4p00  3d06  4f00
Ground state valence configuration (from tables):   4s02  4p02  4d00  4f00
Ground state valence configuration (from tables):   5s02  5p04  5d00  4f00

---- Processing specs for species: Fe
Reading pseudopotential information in formatted form from:
  Fe.psf

[...]

---- Processing specs for species: Te
Reading pseudopotential information in formatted form from:
  Te.psf

---- Pseudopotential check for Fe

Pseudopotential generated from a fully relativistic atomic calculation
There are spin-orbit semi-local pseudopotentials available

Pseudized shells:
4s( 2.00) rc: 1.72
4p( 0.00) rc: 2.15
3d( 6.00) rc: 0.84
4f( 0.00) rc: 2.00
Valence configuration for ps generation: (assumed as above)

[...]

Pseudized shells:
4s( 2.00) rc: 3.03
4p( 2.00) rc: 2.33
4d( 0.00) rc: 2.48
4f( 0.00) rc: 2.99
Valence configuration for ps generation: (assumed as above)

---- Pseudopotential check for Te

Pseudopotential generated from a fully relativistic atomic calculation
There are spin-orbit semi-local pseudopotentials available

Pseudized shells:
5s( 2.00) rc: 2.75
5p( 4.00) rc: 1.65
5d( 0.00) rc: 2.75
4f( 0.00) rc: 2.68
Valence configuration for ps generation: (assumed as above)
For Fe, standard SIESTA heuristics set lmxkb to 3
 (one more than the basis l, including polarization orbitals).
Use PS.lmax or PS.KBprojectors blocks to override.
For Ge, standard SIESTA heuristics set lmxkb to 3
 (one more than the basis l, including polarization orbitals).
Use PS.lmax or PS.KBprojectors blocks to override.
For Te, standard SIESTA heuristics set lmxkb to 3
 (one more than the basis l, including polarization orbitals).
Use PS.lmax or PS.KBprojectors blocks to override.

<basis_specs>
Fe                   Z=  26    Mass=  55.845        Charge= 0.17977+309
Lmxo=2 Lmxkb= 3    BasisType=split      Semic=F
L=0  Nsemic=0  Cnfigmx=4
          i=1  nzeta=2  polorb=1  (4s)  (to be polarized perturbatively)
            splnorm:   0.15000
               vcte:    40.000
               rinn:  -0.90000
               qcoe:    0.0000
               qyuk:    0.0000
               qwid:   0.10000E-01
                rcs:    0.0000      0.0000
            lambdas:    1.0000      1.0000
L=1  Nsemic=0  Cnfigmx=4
          i=1  nzeta=0  polorb=0  (4p)  (perturbative polarization orbital) (from 4s)
L=2  Nsemic=0  Cnfigmx=3
          i=1  nzeta=2  polorb=0  (3d)
            splnorm:   0.15000
               vcte:    40.000
               rinn:  -0.90000
               qcoe:    0.0000
               qyuk:    0.0000
               qwid:   0.10000E-01
                rcs:    0.0000      0.0000
            lambdas:    1.0000      1.0000
L=0  Nkbl=1  erefs: 0.17977+309
L=1  Nkbl=1  erefs: 0.17977+309
L=2  Nkbl=1  erefs: 0.17977+309
L=3  Nkbl=1  erefs: 0.17977+309
</basis_specs>

Using PAO.SplitTailNorm
atom: Called for Fe                    (Z =  26)
Maximum radius (at nrval) set to   50.00000 8518

read_vps: Pseudopotential generation method:
read_vps: ATM4.2.7  Troullier-Martins
Valence charge in pseudo generation:    8.00000

read_vps: Pseudopotential includes a core correction:
read_vps: Pseudo-core for xc-correction

xc_check: Exchange-correlation functional:
xc_check: GGA Perdew, Burke & Ernzerhof 1996
V l=0 = -2*Zval/r beyond r=  2.7517
V l=1 = -2*Zval/r beyond r=  2.7517
V l=2 = -2*Zval/r beyond r=  2.7517
V l=3 = -2*Zval/r beyond r=  2.7517
All V_l potentials equal beyond r=  2.1408
This should be close to max(r_c) in ps generation
All pots = -2*Zval/r beyond r=  2.7517
Using small-core scheme (local charge) for Vlocal

VLOCAL_FROM_CHLOCAL: 99.0% of the norm of Vloc inside      9.472 Ry
VLOCAL_FROM_CHLOCAL: 99.9% of the norm of Vloc inside     21.586 Ry
atom: Maximum radius for chlocal:    2.57269
atom: Maximum radius for r*vlocal+2*Zval:    2.37889

KBgen: Kleinman-Bylander projectors:
GHOST: No ghost state for L =  0
   l= 0   rc=  2.928296   el= -0.388312   Ekb=  5.219433   kbcos=  0.240863
GHOST: No ghost state for L =  1
   l= 1   rc=  3.005693   el= -0.097563   Ekb=  2.157003   kbcos=  0.224184
GHOST: No ghost state for L =  2
   l= 2   rc=  2.588228   el= -0.553222   Ekb=-34.168208   kbcos= -0.542811
GHOST: No ghost state for L =  3
   l= 3   rc=  3.217894   el=  0.019212   Ekb= -1.637044   kbcos= -0.007020

KBgen: Total number of Kleinman-Bylander projectors:  16
atom: -------------------------------------------------------------------------

atom: SANKEY-TYPE ORBITALS:
atom: Selected multiple-zeta basis: split

SPLIT: Orbitals with angular momentum L= 0

SPLIT: Basis orbitals for state 4s

SPLIT: PAO cut-off radius determined from an
SPLIT: energy shift=  0.001000 Ry
Split based on tail norm

   izeta = 1
                 lambda =    1.000000
                     rc =    8.950534
                 energy =   -0.387036
                kinetic =    0.294112
    potential(screened) =   -0.681149
       potential(ionic) =   -5.918860

   izeta = 2
                 rmatch =    5.732128
              splitnorm =    0.150000
                 energy =   -0.294432
                kinetic =    0.574543
    potential(screened) =   -0.868975
       potential(ionic) =   -6.678390

[...]

SPLIT: Basis orbitals for state 3d

[...]

POLgen: Perturbative polarization orbital with L=  1

POLgen: Polarization orbital for state 4s
Split based on tail norm

   izeta = 1
                     rc =    8.950534
                 energy =   -0.060045
                kinetic =    0.514836
    potential(screened) =   -0.574880
       potential(ionic) =   -5.318417
atom: Total number of Sankey-type orbitals: 15

atm_pop: Valence configuration (for local Pseudopot. screening):
 4s( 2.00)
 4p( 0.00)
 3d( 6.00)
Vna: chval, zval:    8.00000   8.00000

Vna:  Cut-off radius for the neutral-atom potential:   8.950534
comcore: Pseudo-core radius Rcore=  3.744030

atom: _________________________________________________________________________

<basis_specs>
Ge                   Z=  32    Mass=  72.630        Charge= 0.17977+309
Lmxo=2 Lmxkb= 3    BasisType=split      Semic=F
L=0  Nsemic=0  Cnfigmx=4
          i=1  nzeta=2  polorb=0  (4s)
            splnorm:   0.15000
               vcte:    40.000
               rinn:  -0.90000
               qcoe:    0.0000
               qyuk:    0.0000
               qwid:   0.10000E-01
                rcs:    0.0000      0.0000
            lambdas:    1.0000      1.0000
L=1  Nsemic=0  Cnfigmx=4
          i=1  nzeta=2  polorb=1  (4p)  (to be polarized perturbatively)
[...]
     spin moment: {S} , |S| = {        0.0        0.0    6.50444 }     6.50444
   scf:    5    -3116.890845    -3116.890904    -3116.890906  0.000751 -4.584603  0.036020
     spin moment: {S} , |S| = {        0.0        0.0    6.50444 }     6.50444
   scf:    6    -3116.890914    -3116.890943    -3116.890945  0.000689 -4.584721  0.022311
     spin moment: {S} , |S| = {        0.0        0.0    6.50444 }     6.50444
   scf:    7    -3116.891007    -3116.890987    -3116.890989  0.000468 -4.584620  0.007577
     spin moment: {S} , |S| = {        0.0        0.0    6.50444 }     6.50444
   scf:    8    -3116.890995    -3116.890991    -3116.890994  0.000073 -4.584875  0.004435
     spin moment: {S} , |S| = {        0.0        0.0    6.50444 }     6.50444
   scf:    9    -3116.891001    -3116.890997    -3116.891000  0.000173 -4.585109  0.008962
     spin moment: {S} , |S| = {        0.0        0.0    6.50444 }     6.50444
   scf:   10    -3116.891007    -3116.891003    -3116.891005  0.000210 -4.585669  0.005031
     spin moment: {S} , |S| = {        0.0        0.0    6.50444 }     6.50444
   scf:   11    -3116.891001    -3116.891003    -3116.891005  0.000085 -4.585646  0.004851
     spin moment: {S} , |S| = {        0.0        0.0    6.50444 }     6.50444
   scf:   12    -3116.891006    -3116.891004    -3116.891007  0.000132 -4.585926  0.002671
     spin moment: {S} , |S| = {        0.0        0.0    6.50444 }     6.50444
   scf:   13    -3116.891006    -3116.891005    -3116.891008  0.000106 -4.586032  0.001616
     spin moment: {S} , |S| = {        0.0        0.0    6.50444 }     6.50444
   scf:   14    -3116.891005    -3116.891005    -3116.891008  0.000014 -4.586004  0.001523
     spin moment: {S} , |S| = {        0.0        0.0    6.50444 }     6.50444
   scf:   15    -3116.891008    -3116.891007    -3116.891009  0.000231 -4.586115  0.000711
     spin moment: {S} , |S| = {        0.0        0.0    6.50444 }     6.50444
   scf:   16    -3116.891007    -3116.891007    -3116.891009  0.000082 -4.586147  0.000662
     spin moment: {S} , |S| = {        0.0        0.0    6.50444 }     6.50444

[...]

        iscf     Eharris(eV)        E_KS(eV)     FreeEng(eV)     dDmax    Ef(eV) dHmax(eV)
   scf:    1    -3116.839736    -3116.886504    -3116.886509  0.007062 -4.566441  0.565548
     spin moment: {S} , |S| = {        0.0        0.0    6.50444 }     6.50444
   scf:    2    -3111.368444    -3115.080067    -3115.080069  0.091725 -4.809084  9.949389
     spin moment: {S} , |S| = {        0.0        0.0    6.42667 }     6.42667
   scf:    3    -3116.876806    -3116.890420    -3116.890424  0.090757 -4.581378  0.257789
     spin moment: {S} , |S| = {        0.0        0.0    6.50444 }     6.50444
   scf:    4    -3116.891819    -3116.891865    -3116.891869  0.002744 -4.584176  0.053263
     spin moment: {S} , |S| = {        0.0        0.0    6.50444 }     6.50444
   scf:    5    -3116.891967    -3116.891977    -3116.891981  0.000890 -4.584533  0.018149
     spin moment: {S} , |S| = {        0.0        0.0    6.50444 }     6.50444
   scf:    6    -3116.891992    -3116.891988    -3116.891992  0.000162 -4.584640  0.015700
     spin moment: {S} , |S| = {        0.0        0.0    6.50444 }     6.50444
   scf:    7    -3116.892016    -3116.892006    -3116.892010  0.000284 -4.584788  0.004207
     spin moment: {S} , |S| = {        0.0        0.0    6.50444 }     6.50444
   scf:    8    -3116.892012    -3116.892009    -3116.892013  0.000054 -4.584663  0.002984
     spin moment: {S} , |S| = {        0.0        0.0    6.50444 }     6.50444
   scf:    9    -3116.892015    -3116.892013    -3116.892016  0.000119 -4.584404  0.004657
     spin moment: {S} , |S| = {        0.0        0.0    6.50444 }     6.50444
   scf:   10    -3116.892013    -3116.892013    -3116.892017  0.000075 -4.584338  0.004442
     spin moment: {S} , |S| = {        0.0        0.0    6.50444 }     6.50444
   scf:   11    -3116.892013    -3116.892013    -3116.892017  0.000043 -4.584344  0.001766
     spin moment: {S} , |S| = {        0.0        0.0    6.50444 }     6.50444
   scf:   12    -3116.892015    -3116.892014    -3116.892018  0.000086 -4.584183  0.002967
     spin moment: {S} , |S| = {        0.0        0.0    6.50444 }     6.50444
   scf:   13    -3116.892016    -3116.892015    -3116.892019  0.000098 -4.584015  0.001766
     spin moment: {S} , |S| = {        0.0        0.0    6.50444 }     6.50444
   scf:   14    -3116.892016    -3116.892015    -3116.892019  0.000050 -4.583971  0.001175
     spin moment: {S} , |S| = {        0.0        0.0    6.50444 }     6.50444
   scf:   15    -3116.892016    -3116.892016    -3116.892019  0.000043 -4.583946  0.000840
     spin moment: {S} , |S| = {        0.0        0.0    6.50444 }     6.50444

[...]

        iscf     Eharris(eV)        E_KS(eV)     FreeEng(eV)     dDmax    Ef(eV) dHmax(eV)
   scf:    1    -3116.903783    -3116.891166    -3116.891168  0.003193 -4.578962  0.204340
     spin moment: {S} , |S| = {        0.0        0.0    6.50444 }     6.50444
   scf:    2    -3116.316850    -3116.703574    -3116.703576  0.027068 -4.673514  3.336219
     spin moment: {S} , |S| = {        0.0        0.0    6.46667 }     6.46667
   scf:    3    -3116.890574    -3116.891694    -3116.891696  0.026076 -4.584821  0.089760
     spin moment: {S} , |S| = {        0.0        0.0    6.50444 }     6.50444
   scf:    4    -3116.891862    -3116.891878    -3116.891880  0.000912 -4.585481  0.021156
     spin moment: {S} , |S| = {        0.0        0.0    6.50444 }     6.50444
   scf:    5    -3116.891898    -3116.891897    -3116.891899  0.000341 -4.585599  0.003667
     spin moment: {S} , |S| = {        0.0        0.0    6.50444 }     6.50444
   scf:    6    -3116.891901    -3116.891899    -3116.891901  0.000040 -4.585582  0.002249
     spin moment: {S} , |S| = {        0.0        0.0    6.50444 }     6.50444
   scf:    7    -3116.891902    -3116.891901    -3116.891903  0.000047 -4.585466  0.003745
     spin moment: {S} , |S| = {        0.0        0.0    6.50444 }     6.50444
   scf:    8    -3116.891902    -3116.891902    -3116.891904  0.000061 -4.585302  0.003257
     spin moment: {S} , |S| = {        0.0        0.0    6.50444 }     6.50444
   scf:    9    -3116.891903    -3116.891903    -3116.891905  0.000101 -4.585141  0.003707
     spin moment: {S} , |S| = {        0.0        0.0    6.50444 }     6.50444
   scf:   10    -3116.891904    -3116.891904    -3116.891906  0.000060 -4.585036  0.001028
     spin moment: {S} , |S| = {        0.0        0.0    6.50444 }     6.50444
   scf:   11    -3116.891904    -3116.891904    -3116.891906  0.000014 -4.585063  0.001107
     spin moment: {S} , |S| = {        0.0        0.0    6.50444 }     6.50444
   scf:   12    -3116.891904    -3116.891904    -3116.891906  0.000009 -4.585071  0.001063
     spin moment: {S} , |S| = {        0.0        0.0    6.50444 }     6.50444
   scf:   13    -3116.891905    -3116.891904    -3116.891906  0.000058 -4.585133  0.001215
     spin moment: {S} , |S| = {        0.0        0.0    6.50444 }     6.50444
   scf:   14    -3116.891904    -3116.891904    -3116.891906  0.000011 -4.585137  0.000913
     spin moment: {S} , |S| = {        0.0        0.0    6.50444 }     6.50444

[...]

        iscf     Eharris(eV)        E_KS(eV)     FreeEng(eV)     dDmax    Ef(eV) dHmax(eV)
   scf:    1    -3116.880333    -3116.891609    -3116.891613  0.002361 -4.588977  0.154954
     spin moment: {S} , |S| = {        0.0        0.0    6.50444 }     6.50444
   scf:    2    -3116.552370    -3116.780697    -3116.780702  0.019309 -4.517884  2.542328
     spin moment: {S} , |S| = {        0.0        0.0    6.50444 }     6.50444
   scf:    3    -3116.890130    -3116.891877    -3116.891881  0.019617 -4.584448  0.076957
     spin moment: {S} , |S| = {        0.0        0.0    6.50444 }     6.50444
   scf:    4    -3116.892040    -3116.892026    -3116.892029  0.000851 -4.583932  0.008404
     spin moment: {S} , |S| = {        0.0        0.0    6.50444 }     6.50444
   scf:    5    -3116.892028    -3116.892028    -3116.892031  0.000113 -4.583958  0.002528
     spin moment: {S} , |S| = {        0.0        0.0    6.50444 }     6.50444
   scf:    6    -3116.892030    -3116.892029    -3116.892032  0.000039 -4.584072  0.001691
     spin moment: {S} , |S| = {        0.0        0.0    6.50444 }     6.50444
   scf:    7    -3116.892032    -3116.892031    -3116.892034  0.000100 -4.584454  0.000680
     spin moment: {S} , |S| = {        0.0        0.0    6.50444 }     6.50444

[...]

cgvc: Finished line minimization    4.  Mean atomic displacement =    0.0013

                        Begin CG opt. move =      9

outcoor: Atomic coordinates (Ang):
    2.37616142    1.75864855   12.72104002   3       1  Te
    2.37616597    1.75866398    7.50046599   3       2  Te
    0.32737246    2.94133012   10.11079297   2       3  Ge
    0.32757277    0.57563629   11.35925118   1       4  Fe
    0.32756893    0.57564823    8.86209573   1       5  Fe
    2.37656288    1.75843472   10.11071346   1       6  Fe

superc: Internal auxiliary supercell:     9 x     9 x     1  =      81
superc: Number of atoms, orbitals, and projectors:    486   6804   7776

outcell: Unit cell vectors (Ang):
        4.097694    0.000000    0.000000
       -2.048847    3.548707    0.000000
        0.000000    0.000000   30.000000

outcell: Cell vector modules (Ang)   :    4.097694    4.097694   30.000000
outcell: Cell angles (23,13,12) (deg):     90.0000     90.0000    120.0000
outcell: Cell volume (Ang**3)        :    436.2455
<dSpData1D:S at geom step 9
  <sparsity:sparsity for geom step 9
    nrows_g=84 nrows=22 sparsity=4.5011 nnzs=31760, refcount: 7>
  <dData1D:(new from dSpData1D) n=31760, refcount: 1>
refcount: 1>
new_DM -- step:    10
Re-using DM from previous geometries...
Number of DMs in history: 1
 DM extrapolation coefficients:
1   1.00000
New DM after history re-use:
<dSpData2D:SpM extrapolated using coords
  <sparsity:sparsity for geom step 9
    nrows_g=84 nrows=22 sparsity=4.5011 nnzs=31760, refcount: 9>
  <dData2D:(temp array for extrapolation) n=31760 m=2, refcount: 1>
refcount: 1>
No. of atoms with KB's overlaping orbs in proc 0. Max # of overlaps:      39     568

InitMesh: MESH = 80 x 80 x 640 = 4096000
InitMesh: Mesh cutoff (required, used) =  1200.000  1257.823 Ry
New grid distribution [1]: sub = 2
New grid distribution [2]: sub = 2
New grid distribution [3]: sub = 2
Setting up quadratic distribution...

        iscf     Eharris(eV)        E_KS(eV)     FreeEng(eV)     dDmax    Ef(eV) dHmax(eV)
   scf:    1    -3116.892541    -3116.892015    -3116.892019  0.000628 -4.583341  0.030880
     spin moment: {S} , |S| = {        0.0        0.0    6.50444 }     6.50444
   scf:    2    -3116.864741    -3116.883056    -3116.883062  0.006881 -4.595067  0.494979
     spin moment: {S} , |S| = {        0.0        0.0    6.50444 }     6.50444
   scf:    3    -3116.891765    -3116.892021    -3116.892025  0.006967 -4.584354  0.019652
     spin moment: {S} , |S| = {        0.0        0.0    6.50444 }     6.50444
   scf:    4    -3116.892033    -3116.892035    -3116.892039  0.000327 -4.584327  0.007406
     spin moment: {S} , |S| = {        0.0        0.0    6.50444 }     6.50444
   scf:    5    -3116.892036    -3116.892036    -3116.892040  0.000085 -4.584376  0.000917
     spin moment: {S} , |S| = {        0.0        0.0    6.50444 }     6.50444

SCF Convergence by DM+H criterion
max |DM_out - DM_in|         :     0.0000848860
max |H_out - H_in|      (eV) :     0.0009170195
SCF cycle converged after 5 iterations

Using DM_out to compute the final energy and forces
No. of atoms with KB's overlaping orbs in proc 0. Max # of overlaps:      39     568

siesta: E_KS(eV) =            -3116.8920

siesta: Atomic forces (eV/Ang):
     1    0.000866   -0.000465   -0.002323
     2    0.000840   -0.000475    0.001734
     3    0.002947    0.000928   -0.000129
     4   -0.000625    0.000019    0.002102
     5   -0.000641    0.000067   -0.002574
     6   -0.003209   -0.000066    0.000015
   Tot    0.000178    0.000009   -0.001175
   Max    0.003209
   Res    0.001528    sqrt( Sum f_i^2 / 3N )
   Max    0.003209    constrained

Stress tensor Voigt[x,y,z,yz,xz,xy] (kbar):        0.73        0.73       -0.01       -0.00        0.00       -0.01
(Free)E + p*V (eV/cell)    -3117.0242
Target enthalpy (eV/cell)    -3116.8920

[...]

outcoor: Relaxed atomic coordinates (Ang):
    2.37616142    1.75864855   12.72104002   3       1  Te
    2.37616597    1.75866398    7.50046599   3       2  Te
    0.32737246    2.94133012   10.11079297   2       3  Ge
    0.32757277    0.57563629   11.35925118   1       4  Fe
    0.32756893    0.57564823    8.86209573   1       5  Fe
    2.37656288    1.75843472   10.11071346   1       6  Fe

siesta: Program's energy decomposition (eV):
siesta: Ebs     =      -340.282631
siesta: Eions   =      3068.636035
siesta: Ena     =       275.788337
siesta: Ekin    =      3538.261161
siesta: Enl     =     -2398.203837
siesta: Eso     =         0.000000
siesta: Edftu   =         0.000000
siesta: DEna    =         2.435344
siesta: DUscf   =         0.798788
siesta: DUext   =         0.000000
siesta: Ex      =     -1378.135783
siesta: Ec      =       -89.200012
siesta: Exc     =     -1467.335795
siesta: EbV     =         0.000000
siesta: eta*DQ  =         0.000000
siesta: Emadel  =         0.000000
siesta: Emeta   =         0.000000
siesta: Emolmec =         0.000000
siesta: Ekinion =         0.000000
siesta: Eharris =     -3116.892036
siesta: Etot    =     -3116.892036
siesta: FreeEng =     -3116.892040

siesta: Final energy (eV):
siesta:  Band Struct. =    -340.282631
siesta:       Kinetic =    3538.261161
siesta:       Hartree =   16435.590438
siesta:         Edftu =       0.000000
siesta:       Eso     =       0.000000
siesta:    Ext. field =       0.000000
siesta:         Exch. =   -1378.135783
siesta:         Corr. =     -89.200012
siesta:     Bulk bias =       0.000000
siesta:   Exch.-corr. =   -1467.335795
siesta:  Ion-electron =  -35963.047647
siesta:       Ion-ion =   14339.639807
siesta:       Ekinion =       0.000000
siesta: D3 dispersion =       0.000000
siesta:         Total =   -3116.892036
siesta:         Fermi =      -4.584376

siesta: Stress tensor (static) (eV/Ang**3):
siesta:     0.000457   -0.000007    0.000001
siesta:    -0.000007    0.000455   -0.000000
siesta:     0.000001   -0.000000   -0.000003

siesta: Cell volume =        436.245461 Ang**3

siesta: Pressure (static):
siesta:                Solid            Molecule  Units
siesta:          -0.00000330         -0.00000324  Ry/Bohr**3
siesta:          -0.00030286         -0.00029750  eV/Ang**3
siesta:          -0.48522835         -0.47664086  kBar
(Free)E+ p_basis*V_orbitals  =       -3108.643255
(Free)Eharris+ p_basis*V_orbitals  =       -3108.643256

mulliken: Atomic and Orbital Populations:

mulliken: Spin UP

[...]

mulliken: Spin DOWN

Species: Fe
Atom  Qatom  Qorb
   4  2.699   0.054   0.227   0.479   0.477   0.699   0.477   0.479  -0.101
             -0.099  -0.144  -0.099  -0.101   0.114   0.126   0.114
   5  2.699   0.054   0.227   0.479   0.477   0.699   0.477   0.479  -0.101
             -0.099  -0.144  -0.099  -0.101   0.114   0.126   0.114
   6  3.330  -0.025   0.304   0.659   0.798   0.520   0.798   0.659  -0.132
             -0.185  -0.106  -0.185  -0.131   0.117   0.120   0.117

[...]

Species: Te
Atom  Qatom  Qorb
               5Pdxy   5Pdyz   5Pdz2   5Pdxz   5Pdx2-y2
   1  3.110   0.945   0.006   0.629   0.595   0.629   0.071   0.062   0.071
              0.020   0.025   0.011   0.025   0.020
   2  3.110   0.945   0.006   0.629   0.595   0.629   0.071   0.062   0.071
              0.020   0.025   0.011   0.025   0.020

mulliken: Qtot =       16.748

Mulliken Atomic Populations:
Atom #   charge [q] valence [e]      Sz [e]  Species
     1    -0.098696    6.098696   -0.120523  Te
     2    -0.098662    6.098662   -0.120500  Te
     3     0.624648    3.375352   -0.226261  Ge
     4    -0.092551    8.092551    2.694411  Fe
     5    -0.092571    8.092571    2.694483  Fe
     6    -0.242169    8.242169    1.582835  Fe
 Total    -0.000000                6.504444

siesta: Electric dipole (a.u.)  =   -0.000000   -0.000000   -0.000011
siesta: Electric dipole (Debye) =   -0.000000   -0.000000   -0.000029

cite: Please indicate the Siesta version in published work: 5.2.2
cite: This calculation has made use of features in the following articles
cite: which we encourage you to cite in published work.
cite: (Please see "Fe3GeTe2_relax.bib" for a BibTeX file.)
        Primary SIESTA paper
          DOI: www.doi.org/10.1088/0953-8984/14/11/302

>> End of run:   5-MAY-2025  15:52:26
Job completed