 NOTE: Siesta V5 introduces some new defaults for basis-set generation
 NOTE: which might lead to slightly different numerical results.
 NOTE: Please see the manual for full details and compatibility measures.

reinit: Reading from standard input
reinit: Dumping input in INPUT_TMP.31611
************************** Dump of input data file ****************************
# FDF file for Fe3GaTe2
# General System descriptors
SystemName Fe3GaTe2                  # Descriptive name of the system
SystemLabel Fe3GaTe2_relax           # Short name for naming files
NumberOfAtoms           6            # Number of atoms
NumberOfSpecies         3            # Number of species
%block Chemical_Species_Label
  1  26  Fe
  2  31  Ga
  3  52  Te
%endblock Chemical_Species_Label
PAO.BasisSize      DZP
PAO.EnergyShift    0.001 Ry
# Lattice, coordinates, k-sampling
%block AtomicCoordinatesAndAtomicSpecies
       2.3659053000      1.7565516000     12.6863155300                 3
       2.3659053200      1.7565515200      7.5354052800                 3
       0.3378719300      2.9274093600     10.1108346300                 2
       0.3378767100      0.5856540700     11.3527281700                 1
       0.3378767400      0.5856540900      8.8689175800                 1
       2.3659139900      1.7565353000     10.1108330000                 1
%endblock AtomicCoordinatesAndAtomicSpecies
%block LatticeVectors
   4.121046   0.000000   0.000000
   -2.060523   3.568931   0.000000
   0.000000   0.000000  30.00000
%endblock LatticeVectors
%block kgrid_Monkhorst_Pack
  30   0   0
  0   30   0
  0   0   1
%endblock kgrid_Monkhorst_Pack
# DFT, Grid, SCF
XC.functional          GGA
XC.authors             PBE
SpinPolarized          .true.       # Spin polarized calculation
MeshCutoff              1200 Ry     # Equivalent planewave cutoff for the grid10
MaxSCFIterations        300         # Maximum number of SCF iterations per step
DM.MixingWeight         0.1        # New DM amount for next SCF cycle
DM.Tolerance            1.d-4       # Tolerance in maximum difference
                                    # between input and output DM
SCF.Mixer.History       4           # Number of SCF steps between pulay mixing
# Eigenvalue problem: order-N or diagonalization
SolutionMethod          diagon      # OrderN or Diagon
ElectronicTemperature   5 K        # Temp. for Fermi smearing
# Molecular dynamics and relaxations
MD.TypeOfRun            CG
MD.Steps                1000
MD.MaxCGDispl           0.05 Ang
MD.MaxForceTol          0.005 eV/Ang
MD.UseSaveXV            T
MD.UseSaveCG            T
# Output options
WriteCoorInitial        .true.
WriteCoorStep           .true.
WriteForces             .true.
WriteKpoints            .false.
WriteEigenvalues        .false.
WriteKbands             .false.
WriteBands              .false.
WriteMullikenPop        1            # Write Mulliken Population Analysis
WriteCoorXmol           .false.
WriteMDCoorXmol         .false.
WriteMDhistory          .false.
WriteCoorXmol           .false.
# Options for saving/reading information
DM.UseSaveDM             T           # Use DM Continuation files
MD.UseSaveXV            .false.      # Use stored positions and velocities
MD.UseSaveCG            .false.      # Use stored positions and velocities
SaveRho                  T           # Write valence pseudocharge at the mesh
SaveDeltaRho             T           # Write RHOscf-RHOatm at the mesh
SaveElectrostaticPotential .false.   # Write the total elect. pot. at the mesh
SaveTotalPotential      .false.      # Write the total pot. at the mesh
WriteSiestaDim          .false.      # Write minimum dim to siesta.h and stop
WriteDenchar             T           # Write information for DENCHAR
Diag.ParallelOverK       T
************************** End of input data file *****************************

reinit: -----------------------------------------------------------------------
reinit: System Name: Fe3GaTe2
reinit: -----------------------------------------------------------------------
reinit: System Label: Fe3GaTe2_relax
reinit: -----------------------------------------------------------------------

NOTE on units for spin output:
{S} is the spin magnetic moment, in units of the Bohr magneton,
assuming a g-factor for the electron spin of exactly 2.
The spin magnetic moment is then numerically equal to the charge inbalance,
in units of electrons, between the spin-up and -down channels.

initatom: Reading input for the pseudopotentials and atomic orbitals ----------
Species number:   1 Atomic number:   26 Label: Fe
Species number:   2 Atomic number:   31 Label: Ga
Species number:   3 Atomic number:   52 Label: Te

Ground state valence configuration (from tables):   4s02  4p00  3d06  4f00
Ground state valence configuration (from tables):   4s02  4p01  4d00  4f00
Ground state valence configuration (from tables):   5s02  5p04  5d00  4f00

---- Processing specs for species: Fe
Reading pseudopotential information in formatted form from:
  Fe.psf

[...]

---- Processing specs for species: Te
Reading pseudopotential information in formatted form from:
  Te.psf

---- Pseudopotential check for Fe

Pseudopotential generated from a fully relativistic atomic calculation
There are spin-orbit semi-local pseudopotentials available

Pseudized shells:
4s( 2.00) rc: 1.72
4p( 0.00) rc: 2.15
3d( 6.00) rc: 0.84
4f( 0.00) rc: 2.00
Valence configuration for ps generation: (assumed as above)

[...]

Pseudized shells:
4s( 2.00) rc: 3.05
4p( 1.00) rc: 3.21
4d( 0.00) rc: 2.00
4f( 0.00) rc: 2.00
Valence configuration for ps generation: (assumed as above)

---- Pseudopotential check for Te

Pseudopotential generated from a fully relativistic atomic calculation
There are spin-orbit semi-local pseudopotentials available

Pseudized shells:
5s( 2.00) rc: 2.75
5p( 4.00) rc: 1.65
5d( 0.00) rc: 2.75
4f( 0.00) rc: 2.68
Valence configuration for ps generation: (assumed as above)
For Fe, standard SIESTA heuristics set lmxkb to 3
 (one more than the basis l, including polarization orbitals).
Use PS.lmax or PS.KBprojectors blocks to override.
For Ga, standard SIESTA heuristics set lmxkb to 3
 (one more than the basis l, including polarization orbitals).
Use PS.lmax or PS.KBprojectors blocks to override.
For Te, standard SIESTA heuristics set lmxkb to 3
 (one more than the basis l, including polarization orbitals).
Use PS.lmax or PS.KBprojectors blocks to override.

<basis_specs>
Fe                   Z=  26    Mass=  55.845        Charge= 0.17977+309
Lmxo=2 Lmxkb= 3    BasisType=split      Semic=F
L=0  Nsemic=0  Cnfigmx=4
          i=1  nzeta=2  polorb=1  (4s)  (to be polarized perturbatively)
            splnorm:   0.15000
               vcte:    40.000
               rinn:  -0.90000
               qcoe:    0.0000
               qyuk:    0.0000
               qwid:   0.10000E-01
                rcs:    0.0000      0.0000
            lambdas:    1.0000      1.0000
L=1  Nsemic=0  Cnfigmx=4
          i=1  nzeta=0  polorb=0  (4p)  (perturbative polarization orbital) (from 4s)
L=2  Nsemic=0  Cnfigmx=3
          i=1  nzeta=2  polorb=0  (3d)
            splnorm:   0.15000
               vcte:    40.000
               rinn:  -0.90000
               qcoe:    0.0000
               qyuk:    0.0000
               qwid:   0.10000E-01
                rcs:    0.0000      0.0000
            lambdas:    1.0000      1.0000
L=0  Nkbl=1  erefs: 0.17977+309
L=1  Nkbl=1  erefs: 0.17977+309
L=2  Nkbl=1  erefs: 0.17977+309
L=3  Nkbl=1  erefs: 0.17977+309
</basis_specs>

Using PAO.SplitTailNorm
atom: Called for Fe                    (Z =  26)
Maximum radius (at nrval) set to   50.00000 8518

read_vps: Pseudopotential generation method:
read_vps: ATM4.2.7  Troullier-Martins
Valence charge in pseudo generation:    8.00000

read_vps: Pseudopotential includes a core correction:
read_vps: Pseudo-core for xc-correction

xc_check: Exchange-correlation functional:
xc_check: GGA Perdew, Burke & Ernzerhof 1996
V l=0 = -2*Zval/r beyond r=  2.7517
V l=1 = -2*Zval/r beyond r=  2.7517
V l=2 = -2*Zval/r beyond r=  2.7517
V l=3 = -2*Zval/r beyond r=  2.7517
All V_l potentials equal beyond r=  2.1408
This should be close to max(r_c) in ps generation
All pots = -2*Zval/r beyond r=  2.7517
Using small-core scheme (local charge) for Vlocal

VLOCAL_FROM_CHLOCAL: 99.0% of the norm of Vloc inside      9.472 Ry
VLOCAL_FROM_CHLOCAL: 99.9% of the norm of Vloc inside     21.586 Ry
atom: Maximum radius for chlocal:    2.57269
atom: Maximum radius for r*vlocal+2*Zval:    2.37889

KBgen: Kleinman-Bylander projectors:
GHOST: No ghost state for L =  0
   l= 0   rc=  2.928296   el= -0.388312   Ekb=  5.219433   kbcos=  0.240863
GHOST: No ghost state for L =  1
   l= 1   rc=  3.005693   el= -0.097563   Ekb=  2.157003   kbcos=  0.224184
GHOST: No ghost state for L =  2
   l= 2   rc=  2.588228   el= -0.553222   Ekb=-34.168208   kbcos= -0.542811
GHOST: No ghost state for L =  3
   l= 3   rc=  3.217894   el=  0.019212   Ekb= -1.637044   kbcos= -0.007020

KBgen: Total number of Kleinman-Bylander projectors:  16
atom: -------------------------------------------------------------------------

atom: SANKEY-TYPE ORBITALS:
atom: Selected multiple-zeta basis: split

SPLIT: Orbitals with angular momentum L= 0

SPLIT: Basis orbitals for state 4s

SPLIT: PAO cut-off radius determined from an
SPLIT: energy shift=  0.001000 Ry
Split based on tail norm

   izeta = 1
                 lambda =    1.000000
                     rc =    8.950534
                 energy =   -0.387036
                kinetic =    0.294112
    potential(screened) =   -0.681149
       potential(ionic) =   -5.918860

   izeta = 2
                 rmatch =    5.732128
              splitnorm =    0.150000
                 energy =   -0.294432
                kinetic =    0.574543
    potential(screened) =   -0.868975
       potential(ionic) =   -6.678390

[...]

SPLIT: Basis orbitals for state 3d

[...]

POLgen: Perturbative polarization orbital with L=  1

POLgen: Polarization orbital for state 4s
Split based on tail norm

   izeta = 1
                     rc =    8.950534
                 energy =   -0.060045
                kinetic =    0.514836
    potential(screened) =   -0.574880
       potential(ionic) =   -5.318417
atom: Total number of Sankey-type orbitals: 15

atm_pop: Valence configuration (for local Pseudopot. screening):
 4s( 2.00)
 4p( 0.00)
 3d( 6.00)
Vna: chval, zval:    8.00000   8.00000

Vna:  Cut-off radius for the neutral-atom potential:   8.950534
comcore: Pseudo-core radius Rcore=  3.744030

atom: _________________________________________________________________________

<basis_specs>
Ga                   Z=  31    Mass=  69.723        Charge= 0.17977+309
Lmxo=2 Lmxkb= 3    BasisType=split      Semic=F
L=0  Nsemic=0  Cnfigmx=4
          i=1  nzeta=2  polorb=0  (4s)
            splnorm:   0.15000
               vcte:    40.000
               rinn:  -0.90000
               qcoe:    0.0000
               qyuk:    0.0000
               qwid:   0.10000E-01
                rcs:    0.0000      0.0000
            lambdas:    1.0000      1.0000
L=1  Nsemic=0  Cnfigmx=4
          i=1  nzeta=2  polorb=1  (4p)  (to be polarized perturbatively)
[...]
   scf:   32    -3069.560258    -3069.560257    -3069.560259  0.000177 -4.758686  0.000798
     spin moment: {S} , |S| = {        0.0        0.0    6.05715 }     6.05715
   scf:   33    -3069.560258    -3069.560258    -3069.560259  0.000023 -4.758695  0.000957
     spin moment: {S} , |S| = {        0.0        0.0    6.05707 }     6.05707

[...]

        iscf     Eharris(eV)        E_KS(eV)     FreeEng(eV)     dDmax    Ef(eV) dHmax(eV)
   scf:    1    -3069.557832    -3069.545852    -3069.545856  0.011822 -4.721728  0.890106
     spin moment: {S} , |S| = {        0.0        0.0    6.10876 }     6.10876
   scf:    2    -3060.804847    -3066.699993    -3066.699996  0.106542 -5.182008 13.177376
     spin moment: {S} , |S| = {        0.0        0.0    5.99128 }     5.99128
   scf:    3    -3069.501803    -3069.554587    -3069.554593  0.101808 -4.764235  0.480565
     spin moment: {S} , |S| = {        0.0        0.0    6.08169 }     6.08169
   scf:    4    -3069.560992    -3069.560912    -3069.560919  0.005711 -4.765454  0.048733
     spin moment: {S} , |S| = {        0.0        0.0    6.08306 }     6.08306
   scf:    5    -3069.560965    -3069.560971    -3069.560979  0.000693 -4.765235  0.020120
     spin moment: {S} , |S| = {        0.0        0.0    6.08370 }     6.08370
   scf:    6    -3069.561008    -3069.560991    -3069.560999  0.000263 -4.764602  0.008439
     spin moment: {S} , |S| = {        0.0        0.0    6.08496 }     6.08496
   scf:    7    -3069.561037    -3069.561016    -3069.561024  0.000420 -4.763995  0.007670
     spin moment: {S} , |S| = {        0.0        0.0    6.08723 }     6.08723
   scf:    8    -3069.561031    -3069.561028    -3069.561035  0.000571 -4.763659  0.014521
     spin moment: {S} , |S| = {        0.0        0.0    6.09005 }     6.09005
   scf:    9    -3069.561036    -3069.561033    -3069.561041  0.000233 -4.763589  0.005775
     spin moment: {S} , |S| = {        0.0        0.0    6.09059 }     6.09059
   scf:   10    -3069.561035    -3069.561034    -3069.561042  0.000052 -4.763655  0.005227
     spin moment: {S} , |S| = {        0.0        0.0    6.09085 }     6.09085
   scf:   11    -3069.561036    -3069.561035    -3069.561043  0.000059 -4.763811  0.005611
     spin moment: {S} , |S| = {        0.0        0.0    6.09112 }     6.09112
   scf:   12    -3069.561035    -3069.561035    -3069.561043  0.000041 -4.763652  0.006067
     spin moment: {S} , |S| = {        0.0        0.0    6.09114 }     6.09114
   scf:   13    -3069.561035    -3069.561035    -3069.561043  0.000032 -4.763785  0.006488
     spin moment: {S} , |S| = {        0.0        0.0    6.09117 }     6.09117
   scf:   14    -3069.561034    -3069.561035    -3069.561043  0.000051 -4.763770  0.006840
     spin moment: {S} , |S| = {        0.0        0.0    6.09119 }     6.09119
   scf:   15    -3069.561037    -3069.561036    -3069.561044  0.000116 -4.763999  0.006016
     spin moment: {S} , |S| = {        0.0        0.0    6.09164 }     6.09164
   scf:   16    -3069.561043    -3069.561040    -3069.561048  0.000251 -4.764474  0.006962
     spin moment: {S} , |S| = {        0.0        0.0    6.09330 }     6.09330
   scf:   17    -3069.561032    -3069.561036    -3069.561044  0.000285 -4.763802  0.006928
     spin moment: {S} , |S| = {        0.0        0.0    6.09143 }     6.09143
   scf:   18    -3069.561049    -3069.561042    -3069.561051  0.000426 -4.764756  0.005416
     spin moment: {S} , |S| = {        0.0        0.0    6.09447 }     6.09447
   scf:   19    -3069.561047    -3069.561044    -3069.561053  0.000199 -4.765001  0.006268
     spin moment: {S} , |S| = {        0.0        0.0    6.09572 }     6.09572
   scf:   20    -3069.561073    -3069.561058    -3069.561065  0.000863 -4.766065  0.010255
     spin moment: {S} , |S| = {        0.0        0.0    6.10308 }     6.10308
   scf:   21    -3069.561026    -3069.561037    -3069.561045  0.001361 -4.764142  0.009291
     spin moment: {S} , |S| = {        0.0        0.0    6.09267 }     6.09267
   scf:   22    -3069.561044    -3069.561041    -3069.561049  0.000190 -4.764493  0.006109
     spin moment: {S} , |S| = {        0.0        0.0    6.09387 }     6.09387
   scf:   23    -3069.561093    -3069.561062    -3069.561069  0.001349 -4.766138  0.007147
     spin moment: {S} , |S| = {        0.0        0.0    6.10416 }     6.10416
   scf:   24    -3069.561084    -3069.561072    -3069.561076  0.000585 -4.767026  0.006695
     spin moment: {S} , |S| = {        0.0        0.0    6.10768 }     6.10768
   scf:   25    -3069.561028    -3069.561044    -3069.561053  0.001632 -4.764743  0.008772
     spin moment: {S} , |S| = {        0.0        0.0    6.09641 }     6.09641
   scf:   26    -3069.561062    -3069.561053    -3069.561061  0.000552 -4.765253  0.010369
     spin moment: {S} , |S| = {        0.0        0.0    6.10073 }     6.10073
   scf:   27    -3069.561095    -3069.561072    -3069.561076  0.001010 -4.766531  0.006193
     spin moment: {S} , |S| = {        0.0        0.0    6.10756 }     6.10756
   scf:   28    -3069.561077    -3069.561075    -3069.561078  0.000180 -4.767230  0.005699
     spin moment: {S} , |S| = {        0.0        0.0    6.10840 }     6.10840
   scf:   29    -3069.561076    -3069.561076    -3069.561079  0.000247 -4.767737  0.006594
     spin moment: {S} , |S| = {        0.0        0.0    6.10877 }     6.10877
   scf:   30    -3069.561076    -3069.561076    -3069.561079  0.000090 -4.767392  0.003431
     spin moment: {S} , |S| = {        0.0        0.0    6.10868 }     6.10868
   scf:   31    -3069.561075    -3069.561076    -3069.561079  0.000079 -4.767119  0.002108
     spin moment: {S} , |S| = {        0.0        0.0    6.10858 }     6.10858
   scf:   32    -3069.561077    -3069.561076    -3069.561079  0.000040 -4.767197  0.002382
     spin moment: {S} , |S| = {        0.0        0.0    6.10866 }     6.10866
   scf:   33    -3069.561079    -3069.561078    -3069.561080  0.000162 -4.767569  0.001638
     spin moment: {S} , |S| = {        0.0        0.0    6.10886 }     6.10886
   scf:   34    -3069.561077    -3069.561077    -3069.561080  0.000058 -4.767464  0.001670
     spin moment: {S} , |S| = {        0.0        0.0    6.10884 }     6.10884
   scf:   35    -3069.561079    -3069.561078    -3069.561080  0.000105 -4.767680  0.001045
     spin moment: {S} , |S| = {        0.0        0.0    6.10887 }     6.10887
   scf:   36    -3069.561078    -3069.561078    -3069.561080  0.000020 -4.767722  0.000632
     spin moment: {S} , |S| = {        0.0        0.0    6.10888 }     6.10888

[...]

        iscf     Eharris(eV)        E_KS(eV)     FreeEng(eV)     dDmax    Ef(eV) dHmax(eV)
   scf:    1    -3069.557082    -3069.560841    -3069.560845  0.002648 -4.764607  0.123242
     spin moment: {S} , |S| = {        0.0        0.0    6.10889 }     6.10889
   scf:    2    -3069.306742    -3069.477659    -3069.477661  0.022448 -4.812194  2.167963
     spin moment: {S} , |S| = {        0.0        0.0    6.07556 }     6.07556
   scf:    3    -3069.558924    -3069.560982    -3069.560985  0.022555 -4.768000  0.071137
     spin moment: {S} , |S| = {        0.0        0.0    6.10889 }     6.10889
   scf:    4    -3069.561111    -3069.561103    -3069.561106  0.000846 -4.768404  0.006377
     spin moment: {S} , |S| = {        0.0        0.0    6.10889 }     6.10889
   scf:    5    -3069.561103    -3069.561104    -3069.561108  0.000140 -4.768507  0.005824
     spin moment: {S} , |S| = {        0.0        0.0    6.10889 }     6.10889
   scf:    6    -3069.561104    -3069.561105    -3069.561109  0.000122 -4.768481  0.003937
     spin moment: {S} , |S| = {        0.0        0.0    6.10889 }     6.10889
   scf:    7    -3069.561108    -3069.561107    -3069.561111  0.000083 -4.768506  0.001385
     spin moment: {S} , |S| = {        0.0        0.0    6.10889 }     6.10889
   scf:    8    -3069.561108    -3069.561107    -3069.561111  0.000027 -4.768476  0.000912
     spin moment: {S} , |S| = {        0.0        0.0    6.10889 }     6.10889

[...]

cgvc: Finished line minimization    4.  Mean atomic displacement =    0.0032

[...]

                        Begin CG opt. move =     11

outcoor: Atomic coordinates (Ang):
    2.38209577    1.75971069   12.67712077   3       1  Te
    2.38209889    1.75969837    7.54456597   3       2  Te
    0.32184012    2.94939422   10.11084920   2       3  Ga
    0.32152901    0.56999275   11.32601974   1       4  Fe
    0.32152132    0.56995043    8.89583236   1       5  Fe
    2.38214794    1.75959220   10.11083391   1       6  Fe

superc: Internal auxiliary supercell:     9 x     9 x     1  =      81
superc: Number of atoms, orbitals, and projectors:    486   6804   7776

outcell: Unit cell vectors (Ang):
        4.121046    0.000000    0.000000
       -2.060523    3.568931    0.000000
        0.000000    0.000000   30.000000

outcell: Cell vector modules (Ang)   :    4.121046    4.121046   30.000000
outcell: Cell angles (23,13,12) (deg):     90.0000     90.0000    120.0000
outcell: Cell volume (Ang**3)        :    441.2319
<dSpData1D:S at geom step 11
  <sparsity:sparsity for geom step 11
    nrows_g=84 nrows=22 sparsity=4.3923 nnzs=30992, refcount: 7>
  <dData1D:(new from dSpData1D) n=30992, refcount: 1>
refcount: 1>
new_DM -- step:    12
Re-using DM from previous geometries...
Number of DMs in history: 1
 DM extrapolation coefficients:
1   1.00000
New DM after history re-use:
<dSpData2D:SpM extrapolated using coords
  <sparsity:sparsity for geom step 11
    nrows_g=84 nrows=22 sparsity=4.3923 nnzs=30992, refcount: 9>
  <dData2D:(temp array for extrapolation) n=30992 m=2, refcount: 1>
refcount: 1>
No. of atoms with KB's overlaping orbs in proc 0. Max # of overlaps:      39     502

InitMesh: MESH = 80 x 80 x 640 = 4096000
InitMesh: Mesh cutoff (required, used) =  1200.000  1257.823 Ry
New grid distribution [1]: sub = 2
New grid distribution [2]: sub = 2
New grid distribution [3]: sub = 2
Setting up quadratic distribution...

        iscf     Eharris(eV)        E_KS(eV)     FreeEng(eV)     dDmax    Ef(eV) dHmax(eV)
   scf:    1    -3069.551022    -3069.560826    -3069.560828  0.001908 -4.772176  0.126059
     spin moment: {S} , |S| = {        0.0        0.0    6.10879 }     6.10879
   scf:    2    -3069.373274    -3069.499693    -3069.499696  0.014942 -4.710516  1.918852
     spin moment: {S} , |S| = {        0.0        0.0    6.10889 }     6.10889
   scf:    3    -3069.559259    -3069.560991    -3069.560993  0.014331 -4.768337  0.074591
     spin moment: {S} , |S| = {        0.0        0.0    6.10889 }     6.10889
   scf:    4    -3069.561141    -3069.561135    -3069.561137  0.000886 -4.768154  0.005342
     spin moment: {S} , |S| = {        0.0        0.0    6.10889 }     6.10889
   scf:    5    -3069.561135    -3069.561135    -3069.561138  0.000079 -4.768193  0.002085
     spin moment: {S} , |S| = {        0.0        0.0    6.10889 }     6.10889
   scf:    6    -3069.561136    -3069.561136    -3069.561139  0.000044 -4.768301  0.001531
     spin moment: {S} , |S| = {        0.0        0.0    6.10889 }     6.10889
   scf:    7    -3069.561137    -3069.561137    -3069.561140  0.000171 -4.768678  0.000762
     spin moment: {S} , |S| = {        0.0        0.0    6.10889 }     6.10889
   scf:    8    -3069.561137    -3069.561137    -3069.561140  0.000002 -4.768670  0.000752
     spin moment: {S} , |S| = {        0.0        0.0    6.10889 }     6.10889

SCF Convergence by DM+H criterion
max |DM_out - DM_in|         :     0.0000018877
max |H_out - H_in|      (eV) :     0.0007522996
SCF cycle converged after 8 iterations

Using DM_out to compute the final energy and forces
No. of atoms with KB's overlaping orbs in proc 0. Max # of overlaps:      39     502

siesta: E_KS(eV) =            -3069.5611

siesta: Atomic forces (eV/Ang):
     1   -0.000010   -0.000208    0.003085
     2   -0.000046   -0.000304   -0.002865
     3   -0.003265   -0.001969    0.000040
     4    0.000909    0.000428    0.001968
     5    0.000907    0.000445   -0.001918
     6    0.001251    0.001437    0.000103
   Tot   -0.000253   -0.000170    0.000414
   Max    0.003265
   Res    0.001592    sqrt( Sum f_i^2 / 3N )
   Max    0.003265    constrained

Stress tensor Voigt[x,y,z,yz,xz,xy] (kbar):        1.02        1.01       -0.09        0.00       -0.00        0.01
(Free)E + p*V (eV/cell)    -3069.7385
Target enthalpy (eV/cell)    -3069.5611

[...]

outcoor: Relaxed atomic coordinates (Ang):
    2.38209577    1.75971069   12.67712077   3       1  Te
    2.38209889    1.75969837    7.54456597   3       2  Te
    0.32184012    2.94939422   10.11084920   2       3  Ga
    0.32152901    0.56999275   11.32601974   1       4  Fe
    0.32152132    0.56995043    8.89583236   1       5  Fe
    2.38214794    1.75959220   10.11083391   1       6  Fe

siesta: Program's energy decomposition (eV):
siesta: Ebs     =      -324.740581
siesta: Eions   =      3003.696061
siesta: Ena     =       267.723131
siesta: Ekin    =      3520.304761
siesta: Enl     =     -2399.875635
siesta: Eso     =         0.000000
siesta: Edftu   =         0.000000
siesta: DEna    =         1.606351
siesta: DUscf   =         0.925701
siesta: DUext   =         0.000000
siesta: Ex      =     -1368.673837
siesta: Ec      =       -87.875547
siesta: Exc     =     -1456.549385
siesta: EbV     =         0.000000
siesta: eta*DQ  =         0.000000
siesta: Emadel  =         0.000000
siesta: Emeta   =         0.000000
siesta: Emolmec =         0.000000
siesta: Ekinion =         0.000000
siesta: Eharris =     -3069.561137
siesta: Etot    =     -3069.561137
siesta: FreeEng =     -3069.561140

siesta: Final energy (eV):
siesta:  Band Struct. =    -324.740581
siesta:       Kinetic =    3520.304761
siesta:       Hartree =   15536.325036
siesta:         Edftu =       0.000000
siesta:       Eso     =       0.000000
siesta:    Ext. field =       0.000000
siesta:         Exch. =   -1368.673837
siesta:         Corr. =     -87.875547
siesta:     Bulk bias =       0.000000
siesta:   Exch.-corr. =   -1456.549385
siesta:  Ion-electron =  -34145.177476
siesta:       Ion-ion =   13475.535926
siesta:       Ekinion =       0.000000
siesta: D3 dispersion =       0.000000
siesta:         Total =   -3069.561137
siesta:         Fermi =      -4.768670

siesta: Stress tensor (static) (eV/Ang**3):
siesta:     0.000636    0.000005   -0.000000
siesta:     0.000005    0.000629    0.000000
siesta:    -0.000000    0.000000   -0.000059

siesta: Cell volume =        441.231865 Ang**3

siesta: Pressure (static):
siesta:                Solid            Molecule  Units
siesta:          -0.00000438         -0.00000454  Ry/Bohr**3
siesta:          -0.00040187         -0.00041645  eV/Ang**3
siesta:          -0.64386342         -0.66722338  kBar
(Free)E+ p_basis*V_orbitals  =       -3060.406848
(Free)Eharris+ p_basis*V_orbitals  =       -3060.406848

mulliken: Atomic and Orbital Populations:

mulliken: Spin UP

[...]

mulliken: Spin DOWN

Species: Fe
Atom  Qatom  Qorb
   4  2.791   0.130   0.206   0.481   0.504   0.702   0.504   0.481  -0.099
             -0.108  -0.141  -0.108  -0.099   0.107   0.123   0.107
   5  2.791   0.130   0.206   0.481   0.504   0.702   0.504   0.481  -0.099
             -0.108  -0.141  -0.108  -0.099   0.107   0.123   0.107
   6  3.450   0.056   0.281   0.669   0.800   0.578   0.800   0.669  -0.143
             -0.192  -0.118  -0.192  -0.143   0.127   0.131   0.127

[...]

Species: Te
Atom  Qatom  Qorb
               5Pdxy   5Pdyz   5Pdz2   5Pdxz   5Pdx2-y2
   1  3.169   0.966   0.002   0.656   0.589   0.656   0.062   0.076   0.062
              0.021   0.025   0.010   0.025   0.021
   2  3.169   0.966   0.002   0.656   0.589   0.656   0.062   0.076   0.062
              0.021   0.025   0.010   0.025   0.021

mulliken: Qtot =       16.446

Mulliken Atomic Populations:
Atom #   charge [q] valence [e]      Sz [e]  Species
     1    -0.133950    6.133950   -0.204862  Te
     2    -0.133984    6.133984   -0.204907  Te
     3     1.108912    1.891088   -0.256343  Ga
     4    -0.192003    8.192003    2.609295  Fe
     5    -0.191984    8.191984    2.609331  Fe
     6    -0.456990    8.456990    1.556376  Fe
 Total     0.000000                6.108889

siesta: Electric dipole (a.u.)  =   -0.000000    0.000000    0.000022
siesta: Electric dipole (Debye) =   -0.000000    0.000000    0.000056

cite: Please indicate the Siesta version in published work: 5.2.2
cite: This calculation has made use of features in the following articles
cite: which we encourage you to cite in published work.
cite: (Please see "Fe3GaTe2_relax.bib" for a BibTeX file.)
        Primary SIESTA paper
          DOI: www.doi.org/10.1088/0953-8984/14/11/302

>> End of run:   5-MAY-2025  16:15:07
Job completed