 NOTE: Siesta V5 introduces some new defaults for basis-set generation
 NOTE: which might lead to slightly different numerical results.
 NOTE: Please see the manual for full details and compatibility measures.

reinit: Reading from standard input
reinit: Dumping input in INPUT_TMP.13974
************************** Dump of input data file ****************************
# FDF file for Fe3GaTe2
# General System descriptors
SystemName Fe3GaTe2                  # Descriptive name of the system
SystemLabel Fe3GaTe2_relax           # Short name for naming files
NumberOfAtoms           6            # Number of atoms
NumberOfSpecies         3            # Number of species
%block Chemical_Species_Label
  1  26  Fe
  2  31  Ga
  3  52  Te
%endblock Chemical_Species_Label
PAO.BasisSize      DZP
PAO.EnergyShift    0.001 Ry
# Lattice, coordinates, k-sampling
%block AtomicCoordinatesAndAtomicSpecies
       2.3659053000      1.7565516000     12.6863155300                 3
       2.3659053200      1.7565515200      7.5354052800                 3
       0.3378719300      2.9274093600     10.1108346300                 2
       0.3378767100      0.5856540700     11.3527281700                 1
       0.3378767400      0.5856540900      8.8689175800                 1
       2.3659139900      1.7565353000     10.1108330000                 1
%endblock AtomicCoordinatesAndAtomicSpecies
%block LatticeVectors
   4.142245   0.000000   0.000000
   -2.071122   3.587289   0.000000
   0.000000   0.000000  30.00000
%endblock LatticeVectors
%block kgrid_Monkhorst_Pack
  30   0   0
  0   30   0
  0   0   1
%endblock kgrid_Monkhorst_Pack
# DFT, Grid, SCF
XC.functional          GGA
XC.authors             PBE
SpinPolarized          .true.       # Spin polarized calculation
MeshCutoff              1200 Ry     # Equivalent planewave cutoff for the grid10
MaxSCFIterations        300         # Maximum number of SCF iterations per step
DM.MixingWeight         0.1        # New DM amount for next SCF cycle
DM.Tolerance            1.d-4       # Tolerance in maximum difference
                                    # between input and output DM
SCF.Mixer.History       4           # Number of SCF steps between pulay mixing
# Eigenvalue problem: order-N or diagonalization
SolutionMethod          diagon      # OrderN or Diagon
ElectronicTemperature   5 K        # Temp. for Fermi smearing
# Molecular dynamics and relaxations
MD.TypeOfRun            CG
MD.Steps                1000
MD.MaxCGDispl           0.05 Ang
MD.MaxForceTol          0.005 eV/Ang
MD.UseSaveXV            T
MD.UseSaveCG            T
# Output options
WriteCoorInitial        .true.
WriteCoorStep           .true.
WriteForces             .true.
WriteKpoints            .false.
WriteEigenvalues        .false.
WriteKbands             .false.
WriteBands              .false.
WriteMullikenPop        1            # Write Mulliken Population Analysis
WriteCoorXmol           .false.
WriteMDCoorXmol         .false.
WriteMDhistory          .false.
WriteCoorXmol           .false.
# Options for saving/reading information
DM.UseSaveDM             T           # Use DM Continuation files
MD.UseSaveXV            .false.      # Use stored positions and velocities
MD.UseSaveCG            .false.      # Use stored positions and velocities
SaveRho                  T           # Write valence pseudocharge at the mesh
SaveDeltaRho             T           # Write RHOscf-RHOatm at the mesh
SaveElectrostaticPotential .false.   # Write the total elect. pot. at the mesh
SaveTotalPotential      .false.      # Write the total pot. at the mesh
WriteSiestaDim          .false.      # Write minimum dim to siesta.h and stop
WriteDenchar             T           # Write information for DENCHAR
Diag.ParallelOverK       T
************************** End of input data file *****************************

reinit: -----------------------------------------------------------------------
reinit: System Name: Fe3GaTe2
reinit: -----------------------------------------------------------------------
reinit: System Label: Fe3GaTe2_relax
reinit: -----------------------------------------------------------------------

NOTE on units for spin output:
{S} is the spin magnetic moment, in units of the Bohr magneton,
assuming a g-factor for the electron spin of exactly 2.
The spin magnetic moment is then numerically equal to the charge inbalance,
in units of electrons, between the spin-up and -down channels.

initatom: Reading input for the pseudopotentials and atomic orbitals ----------
Species number:   1 Atomic number:   26 Label: Fe
Species number:   2 Atomic number:   31 Label: Ga
Species number:   3 Atomic number:   52 Label: Te

Ground state valence configuration (from tables):   4s02  4p00  3d06  4f00
Ground state valence configuration (from tables):   4s02  4p01  4d00  4f00
Ground state valence configuration (from tables):   5s02  5p04  5d00  4f00

---- Processing specs for species: Fe
Reading pseudopotential information in formatted form from:
  Fe.psf

[...]

---- Processing specs for species: Te
Reading pseudopotential information in formatted form from:
  Te.psf

---- Pseudopotential check for Fe

Pseudopotential generated from a fully relativistic atomic calculation
There are spin-orbit semi-local pseudopotentials available

Pseudized shells:
4s( 2.00) rc: 1.72
4p( 0.00) rc: 2.15
3d( 6.00) rc: 0.84
4f( 0.00) rc: 2.00
Valence configuration for ps generation: (assumed as above)

[...]

Pseudized shells:
4s( 2.00) rc: 3.05
4p( 1.00) rc: 3.21
4d( 0.00) rc: 2.00
4f( 0.00) rc: 2.00
Valence configuration for ps generation: (assumed as above)

---- Pseudopotential check for Te

Pseudopotential generated from a fully relativistic atomic calculation
There are spin-orbit semi-local pseudopotentials available

Pseudized shells:
5s( 2.00) rc: 1.40
5p( 4.00) rc: 1.63
5d( 0.00) rc: 1.99
4f( 0.00) rc: 1.99
Valence configuration for ps generation: (assumed as above)
For Fe, standard SIESTA heuristics set lmxkb to 3
 (one more than the basis l, including polarization orbitals).
Use PS.lmax or PS.KBprojectors blocks to override.
For Ga, standard SIESTA heuristics set lmxkb to 3
 (one more than the basis l, including polarization orbitals).
Use PS.lmax or PS.KBprojectors blocks to override.
For Te, standard SIESTA heuristics set lmxkb to 3
 (one more than the basis l, including polarization orbitals).
Use PS.lmax or PS.KBprojectors blocks to override.

<basis_specs>
Fe                   Z=  26    Mass=  55.845        Charge= 0.17977+309
Lmxo=2 Lmxkb= 3    BasisType=split      Semic=F
L=0  Nsemic=0  Cnfigmx=4
          i=1  nzeta=2  polorb=1  (4s)  (to be polarized perturbatively)
            splnorm:   0.15000
               vcte:    40.000
               rinn:  -0.90000
               qcoe:    0.0000
               qyuk:    0.0000
               qwid:   0.10000E-01
                rcs:    0.0000      0.0000
            lambdas:    1.0000      1.0000
L=1  Nsemic=0  Cnfigmx=4
          i=1  nzeta=0  polorb=0  (4p)  (perturbative polarization orbital) (from 4s)
L=2  Nsemic=0  Cnfigmx=3
          i=1  nzeta=2  polorb=0  (3d)
            splnorm:   0.15000
               vcte:    40.000
               rinn:  -0.90000
               qcoe:    0.0000
               qyuk:    0.0000
               qwid:   0.10000E-01
                rcs:    0.0000      0.0000
            lambdas:    1.0000      1.0000
L=0  Nkbl=1  erefs: 0.17977+309
L=1  Nkbl=1  erefs: 0.17977+309
L=2  Nkbl=1  erefs: 0.17977+309
L=3  Nkbl=1  erefs: 0.17977+309
</basis_specs>

Using PAO.SplitTailNorm
atom: Called for Fe                    (Z =  26)
Maximum radius (at nrval) set to   50.00000 8518

read_vps: Pseudopotential generation method:
read_vps: ATM4.2.7  Troullier-Martins
Valence charge in pseudo generation:    8.00000

read_vps: Pseudopotential includes a core correction:
read_vps: Pseudo-core for xc-correction

xc_check: Exchange-correlation functional:
xc_check: GGA Perdew, Burke & Ernzerhof 1996
V l=0 = -2*Zval/r beyond r=  2.7517
V l=1 = -2*Zval/r beyond r=  2.7517
V l=2 = -2*Zval/r beyond r=  2.7517
V l=3 = -2*Zval/r beyond r=  2.7517
All V_l potentials equal beyond r=  2.1408
This should be close to max(r_c) in ps generation
All pots = -2*Zval/r beyond r=  2.7517
Using small-core scheme (local charge) for Vlocal

VLOCAL_FROM_CHLOCAL: 99.0% of the norm of Vloc inside      9.472 Ry
VLOCAL_FROM_CHLOCAL: 99.9% of the norm of Vloc inside     21.586 Ry
atom: Maximum radius for chlocal:    2.57269
atom: Maximum radius for r*vlocal+2*Zval:    2.37889

KBgen: Kleinman-Bylander projectors:
GHOST: No ghost state for L =  0
   l= 0   rc=  2.928296   el= -0.388312   Ekb=  5.219433   kbcos=  0.240863
GHOST: No ghost state for L =  1
   l= 1   rc=  3.005693   el= -0.097563   Ekb=  2.157003   kbcos=  0.224184
GHOST: No ghost state for L =  2
   l= 2   rc=  2.588228   el= -0.553222   Ekb=-34.168208   kbcos= -0.542811
GHOST: No ghost state for L =  3
   l= 3   rc=  3.217894   el=  0.019212   Ekb= -1.637044   kbcos= -0.007020

KBgen: Total number of Kleinman-Bylander projectors:  16
atom: -------------------------------------------------------------------------

atom: SANKEY-TYPE ORBITALS:
atom: Selected multiple-zeta basis: split

SPLIT: Orbitals with angular momentum L= 0

SPLIT: Basis orbitals for state 4s

SPLIT: PAO cut-off radius determined from an
SPLIT: energy shift=  0.001000 Ry
Split based on tail norm

   izeta = 1
                 lambda =    1.000000
                     rc =    8.950534
                 energy =   -0.387036
                kinetic =    0.294112
    potential(screened) =   -0.681149
       potential(ionic) =   -5.918860

   izeta = 2
                 rmatch =    5.732128
              splitnorm =    0.150000
                 energy =   -0.294432
                kinetic =    0.574543
    potential(screened) =   -0.868975
       potential(ionic) =   -6.678390

[...]

SPLIT: Basis orbitals for state 3d

[...]

POLgen: Perturbative polarization orbital with L=  1

POLgen: Polarization orbital for state 4s
Split based on tail norm

   izeta = 1
                     rc =    8.950534
                 energy =   -0.060045
                kinetic =    0.514836
    potential(screened) =   -0.574880
       potential(ionic) =   -5.318417
atom: Total number of Sankey-type orbitals: 15

atm_pop: Valence configuration (for local Pseudopot. screening):
 4s( 2.00)
 4p( 0.00)
 3d( 6.00)
Vna: chval, zval:    8.00000   8.00000

Vna:  Cut-off radius for the neutral-atom potential:   8.950534
comcore: Pseudo-core radius Rcore=  3.744030

atom: _________________________________________________________________________

<basis_specs>
Ga                   Z=  31    Mass=  69.723        Charge= 0.17977+309
Lmxo=2 Lmxkb= 3    BasisType=split      Semic=F
L=0  Nsemic=0  Cnfigmx=4
          i=1  nzeta=2  polorb=0  (4s)
            splnorm:   0.15000
               vcte:    40.000
               rinn:  -0.90000
               qcoe:    0.0000
               qyuk:    0.0000
               qwid:   0.10000E-01
                rcs:    0.0000      0.0000
            lambdas:    1.0000      1.0000
L=1  Nsemic=0  Cnfigmx=4
          i=1  nzeta=2  polorb=1  (4p)  (to be polarized perturbatively)
[...]
     spin moment: {S} , |S| = {        0.0        0.0    6.17507 }     6.17507
   scf:    5    -3068.272040    -3068.272076    -3068.272080  0.000889 -4.810132  0.025606
     spin moment: {S} , |S| = {        0.0        0.0    6.17474 }     6.17474
   scf:    6    -3068.272103    -3068.272106    -3068.272110  0.000422 -4.810068  0.020903
     spin moment: {S} , |S| = {        0.0        0.0    6.17411 }     6.17411
   scf:    7    -3068.272159    -3068.272142    -3068.272146  0.000578 -4.809878  0.007486
     spin moment: {S} , |S| = {        0.0        0.0    6.17345 }     6.17345
   scf:    8    -3068.272150    -3068.272146    -3068.272150  0.000158 -4.809562  0.004406
     spin moment: {S} , |S| = {        0.0        0.0    6.17331 }     6.17331
   scf:    9    -3068.272151    -3068.272149    -3068.272154  0.000225 -4.808964  0.008373
     spin moment: {S} , |S| = {        0.0        0.0    6.17328 }     6.17328
   scf:   10    -3068.272151    -3068.272151    -3068.272155  0.000096 -4.808720  0.005683
     spin moment: {S} , |S| = {        0.0        0.0    6.17326 }     6.17326
   scf:   11    -3068.272150    -3068.272151    -3068.272155  0.000103 -4.808815  0.003215
     spin moment: {S} , |S| = {        0.0        0.0    6.17318 }     6.17318
   scf:   12    -3068.272152    -3068.272152    -3068.272156  0.000124 -4.808478  0.004567
     spin moment: {S} , |S| = {        0.0        0.0    6.17322 }     6.17322
   scf:   13    -3068.272153    -3068.272153    -3068.272157  0.000100 -4.808130  0.001997
     spin moment: {S} , |S| = {        0.0        0.0    6.17316 }     6.17316
   scf:   14    -3068.272153    -3068.272153    -3068.272157  0.000028 -4.808127  0.001728
     spin moment: {S} , |S| = {        0.0        0.0    6.17312 }     6.17312
   scf:   15    -3068.272153    -3068.272153    -3068.272157  0.000055 -4.808127  0.001128
     spin moment: {S} , |S| = {        0.0        0.0    6.17299 }     6.17299
   scf:   16    -3068.272153    -3068.272153    -3068.272157  0.000018 -4.808151  0.001268
     spin moment: {S} , |S| = {        0.0        0.0    6.17295 }     6.17295
   scf:   17    -3068.272153    -3068.272153    -3068.272157  0.000012 -4.808140  0.000776
     spin moment: {S} , |S| = {        0.0        0.0    6.17295 }     6.17295

[...]

        iscf     Eharris(eV)        E_KS(eV)     FreeEng(eV)     dDmax    Ef(eV) dHmax(eV)
   scf:    1    -3068.284347    -3068.271501    -3068.271504  0.012056 -4.802235  0.171268
     spin moment: {S} , |S| = {        0.0        0.0    6.17556 }     6.17556
   scf:    2    -3067.809950    -3068.120835    -3068.120838  0.023417 -4.889155  2.543776
     spin moment: {S} , |S| = {        0.0        0.0    6.14136 }     6.14136
   scf:    3    -3068.266157    -3068.271740    -3068.271743  0.024069 -4.809531  0.098315
     spin moment: {S} , |S| = {        0.0        0.0    6.17553 }     6.17553
   scf:    4    -3068.272146    -3068.272149    -3068.272152  0.001709 -4.809824  0.030390
     spin moment: {S} , |S| = {        0.0        0.0    6.17554 }     6.17554
   scf:    5    -3068.272170    -3068.272171    -3068.272174  0.000332 -4.810076  0.004837
     spin moment: {S} , |S| = {        0.0        0.0    6.17554 }     6.17554
   scf:    6    -3068.272177    -3068.272174    -3068.272178  0.000097 -4.810059  0.003291
     spin moment: {S} , |S| = {        0.0        0.0    6.17554 }     6.17554
   scf:    7    -3068.272178    -3068.272176    -3068.272180  0.000080 -4.809956  0.006084
     spin moment: {S} , |S| = {        0.0        0.0    6.17554 }     6.17554
   scf:    8    -3068.272180    -3068.272179    -3068.272182  0.000164 -4.809710  0.005404
     spin moment: {S} , |S| = {        0.0        0.0    6.17555 }     6.17555
   scf:    9    -3068.272176    -3068.272179    -3068.272183  0.000152 -4.809691  0.005295
     spin moment: {S} , |S| = {        0.0        0.0    6.17555 }     6.17555
   scf:   10    -3068.272181    -3068.272181    -3068.272184  0.000081 -4.809633  0.001855
     spin moment: {S} , |S| = {        0.0        0.0    6.17555 }     6.17555
   scf:   11    -3068.272181    -3068.272181    -3068.272184  0.000016 -4.809691  0.001817
     spin moment: {S} , |S| = {        0.0        0.0    6.17555 }     6.17555
   scf:   12    -3068.272181    -3068.272181    -3068.272185  0.000095 -4.810118  0.002184
     spin moment: {S} , |S| = {        0.0        0.0    6.17555 }     6.17555
   scf:   13    -3068.272181    -3068.272181    -3068.272185  0.000027 -4.810045  0.000449
     spin moment: {S} , |S| = {        0.0        0.0    6.17555 }     6.17555

[...]

        iscf     Eharris(eV)        E_KS(eV)     FreeEng(eV)     dDmax    Ef(eV) dHmax(eV)
   scf:    1    -3068.265426    -3068.272059    -3068.272065  0.010531 -4.812354  0.085347
     spin moment: {S} , |S| = {        0.0        0.0    6.17445 }     6.17445
   scf:    2    -3068.153071    -3068.233181    -3068.233183  0.012372 -4.769681  1.285857
     spin moment: {S} , |S| = {        0.0        0.0    6.17556 }     6.17556
   scf:    3    -3068.270925    -3068.272120    -3068.272124  0.012706 -4.808981  0.059256
     spin moment: {S} , |S| = {        0.0        0.0    6.17550 }     6.17550
   scf:    4    -3068.272220    -3068.272223    -3068.272227  0.000862 -4.809049  0.012075
     spin moment: {S} , |S| = {        0.0        0.0    6.17549 }     6.17549
   scf:    5    -3068.272227    -3068.272228    -3068.272232  0.000177 -4.809087  0.005669
     spin moment: {S} , |S| = {        0.0        0.0    6.17547 }     6.17547
   scf:    6    -3068.272229    -3068.272229    -3068.272233  0.000052 -4.809304  0.001437
     spin moment: {S} , |S| = {        0.0        0.0    6.17547 }     6.17547
   scf:    7    -3068.272230    -3068.272229    -3068.272233  0.000040 -4.809356  0.001114
     spin moment: {S} , |S| = {        0.0        0.0    6.17547 }     6.17547
   scf:    8    -3068.272231    -3068.272230    -3068.272234  0.000115 -4.809505  0.000788
     spin moment: {S} , |S| = {        0.0        0.0    6.17547 }     6.17547
   scf:    9    -3068.272230    -3068.272230    -3068.272234  0.000009 -4.809482  0.000558
     spin moment: {S} , |S| = {        0.0        0.0    6.17547 }     6.17547

[...]

cgvc: Finished line minimization    4.  Mean atomic displacement =    0.0037

[...]

        iscf     Eharris(eV)        E_KS(eV)     FreeEng(eV)     dDmax    Ef(eV) dHmax(eV)
   scf:    1    -3068.268116    -3068.272059    -3068.272062  0.003563 -4.806550  0.084045
     spin moment: {S} , |S| = {        0.0        0.0    6.17504 }     6.17504
   scf:    2    -3068.078501    -3068.208496    -3068.208500  0.016875 -4.833844  1.636441
     spin moment: {S} , |S| = {        0.0        0.0    6.16284 }     6.16284
   scf:    3    -3068.271096    -3068.272129    -3068.272132  0.016549 -4.808737  0.035586
     spin moment: {S} , |S| = {        0.0        0.0    6.17398 }     6.17398
   scf:    4    -3068.272169    -3068.272180    -3068.272183  0.000651 -4.808902  0.022794
     spin moment: {S} , |S| = {        0.0        0.0    6.17383 }     6.17383
   scf:    5    -3068.272198    -3068.272196    -3068.272199  0.000269 -4.809113  0.003602
     spin moment: {S} , |S| = {        0.0        0.0    6.17381 }     6.17381
   scf:    6    -3068.272196    -3068.272196    -3068.272200  0.000051 -4.809140  0.003635
     spin moment: {S} , |S| = {        0.0        0.0    6.17361 }     6.17361
   scf:    7    -3068.272198    -3068.272197    -3068.272201  0.000090 -4.809160  0.001043
     spin moment: {S} , |S| = {        0.0        0.0    6.17337 }     6.17337
   scf:    8    -3068.272198    -3068.272198    -3068.272201  0.000023 -4.809130  0.001024
     spin moment: {S} , |S| = {        0.0        0.0    6.17324 }     6.17324
   scf:    9    -3068.272198    -3068.272198    -3068.272201  0.000028 -4.809092  0.001669
     spin moment: {S} , |S| = {        0.0        0.0    6.17310 }     6.17310
   scf:   10    -3068.272198    -3068.272198    -3068.272201  0.000035 -4.809055  0.001554
     spin moment: {S} , |S| = {        0.0        0.0    6.17294 }     6.17294
   scf:   11    -3068.272198    -3068.272198    -3068.272201  0.000014 -4.809061  0.000679
     spin moment: {S} , |S| = {        0.0        0.0    6.17296 }     6.17296

[...]

                        Begin CG opt. move =     11

outcoor: Atomic coordinates (Ang):
    2.38726965    1.76086636   12.72368871   3       1  Te
    2.38729005    1.76085768    7.49792009   3       2  Te
    0.31672421    2.95634411   10.11081983   2       3  Ga
    0.31621215    0.56486646   11.32024495   1       4  Fe
    0.31623591    0.56485176    8.90142326   1       5  Fe
    2.38755915    1.76062062   10.11079596   1       6  Fe

superc: Internal auxiliary supercell:     9 x     9 x     1  =      81
superc: Number of atoms, orbitals, and projectors:    486   6804   7776

outcell: Unit cell vectors (Ang):
        4.142245    0.000000    0.000000
       -2.071122    3.587289    0.000000
        0.000000    0.000000   30.000000

outcell: Cell vector modules (Ang)   :    4.142245    4.142244   30.000000
outcell: Cell angles (23,13,12) (deg):     90.0000     90.0000    120.0000
outcell: Cell volume (Ang**3)        :    445.7829
<dSpData1D:S at geom step 11
  <sparsity:sparsity for geom step 11
    nrows_g=84 nrows=22 sparsity=3.9943 nnzs=28184, refcount: 7>
  <dData1D:(new from dSpData1D) n=28184, refcount: 1>
refcount: 1>
new_DM -- step:    12
Re-using DM from previous geometries...
Number of DMs in history: 1
 DM extrapolation coefficients:
1   1.00000
New DM after history re-use:
<dSpData2D:SpM extrapolated using coords
  <sparsity:sparsity for geom step 11
    nrows_g=84 nrows=22 sparsity=3.9943 nnzs=28184, refcount: 9>
  <dData2D:(temp array for extrapolation) n=28184 m=2, refcount: 1>
refcount: 1>
No. of atoms with KB's overlaping orbs in proc 0. Max # of overlaps:      39     454

InitMesh: MESH = 80 x 80 x 640 = 4096000
InitMesh: Mesh cutoff (required, used) =  1200.000  1257.823 Ry
New grid distribution [1]: sub = 2
New grid distribution [2]: sub = 2
New grid distribution [3]: sub = 2
Setting up quadratic distribution...

        iscf     Eharris(eV)        E_KS(eV)     FreeEng(eV)     dDmax    Ef(eV) dHmax(eV)
   scf:    1    -3068.274539    -3068.272192    -3068.272196  0.002259 -4.810095  0.051456
     spin moment: {S} , |S| = {        0.0        0.0    6.17540 }     6.17540
   scf:    2    -3068.190610    -3068.245390    -3068.245393  0.010976 -4.793445  1.024812
     spin moment: {S} , |S| = {        0.0        0.0    6.17504 }     6.17504
   scf:    3    -3068.272089    -3068.272227    -3068.272230  0.010726 -4.808948  0.021118
     spin moment: {S} , |S| = {        0.0        0.0    6.17549 }     6.17549
   scf:    4    -3068.272234    -3068.272240    -3068.272244  0.000372 -4.808916  0.012967
     spin moment: {S} , |S| = {        0.0        0.0    6.17550 }     6.17550
   scf:    5    -3068.272247    -3068.272246    -3068.272250  0.000164 -4.808829  0.001827
     spin moment: {S} , |S| = {        0.0        0.0    6.17550 }     6.17550
   scf:    6    -3068.272246    -3068.272246    -3068.272250  0.000043 -4.808867  0.002235
     spin moment: {S} , |S| = {        0.0        0.0    6.17551 }     6.17551
   scf:    7    -3068.272247    -3068.272247    -3068.272250  0.000054 -4.808894  0.000741
     spin moment: {S} , |S| = {        0.0        0.0    6.17552 }     6.17552

SCF Convergence by DM+H criterion
max |DM_out - DM_in|         :     0.0000539823
max |H_out - H_in|      (eV) :     0.0007411005
SCF cycle converged after 7 iterations

Using DM_out to compute the final energy and forces
No. of atoms with KB's overlaping orbs in proc 0. Max # of overlaps:      39     454

siesta: E_KS(eV) =            -3068.2722

siesta: Atomic forces (eV/Ang):
     1    0.000557   -0.000856   -0.004689
     2    0.000566   -0.000876    0.004762
     3   -0.004717    0.000711   -0.000049
     4    0.001149    0.000655    0.001358
     5    0.001170    0.000663   -0.001406
     6    0.001087   -0.000184   -0.000110
   Tot   -0.000188    0.000113   -0.000134
   Max    0.004762
   Res    0.002084    sqrt( Sum f_i^2 / 3N )
   Max    0.004762    constrained

Stress tensor Voigt[x,y,z,yz,xz,xy] (kbar):        1.80        1.80        0.06       -0.00        0.00        0.01
(Free)E + p*V (eV/cell)    -3068.6116
Target enthalpy (eV/cell)    -3068.2723

[...]

outcoor: Relaxed atomic coordinates (Ang):
    2.38726965    1.76086636   12.72368871   3       1  Te
    2.38729005    1.76085768    7.49792009   3       2  Te
    0.31672421    2.95634411   10.11081983   2       3  Ga
    0.31621215    0.56486646   11.32024495   1       4  Fe
    0.31623591    0.56485176    8.90142326   1       5  Fe
    2.38755915    1.76062062   10.11079596   1       6  Fe

siesta: Program's energy decomposition (eV):
siesta: Ebs     =      -323.687187
siesta: Eions   =      3245.743898
siesta: Ena     =       493.366765
siesta: Ekin    =      3540.142282
siesta: Enl     =     -2401.949119
siesta: Eso     =         0.000000
siesta: Edftu   =         0.000000
siesta: DEna    =         1.428871
siesta: DUscf   =         0.877483
siesta: DUext   =         0.000000
siesta: Ex      =     -1369.342780
siesta: Ec      =       -87.051850
siesta: Exc     =     -1456.394631
siesta: EbV     =         0.000000
siesta: eta*DQ  =         0.000000
siesta: Emadel  =         0.000000
siesta: Emeta   =         0.000000
siesta: Emolmec =         0.000000
siesta: Ekinion =         0.000000
siesta: Eharris =     -3068.272247
siesta: Etot    =     -3068.272247
siesta: FreeEng =     -3068.272250

siesta: Final energy (eV):
siesta:  Band Struct. =    -323.687187
siesta:       Kinetic =    3540.142282
siesta:       Hartree =   15307.725610
siesta:         Edftu =       0.000000
siesta:       Eso     =       0.000000
siesta:    Ext. field =       0.000000
siesta:         Exch. =   -1369.342780
siesta:         Corr. =     -87.051850
siesta:     Bulk bias =       0.000000
siesta:   Exch.-corr. =   -1456.394631
siesta:  Ion-electron =  -33707.164770
siesta:       Ion-ion =   13247.419262
siesta:       Ekinion =       0.000000
siesta: D3 dispersion =       0.000000
siesta:         Total =   -3068.272247
siesta:         Fermi =      -4.808894

siesta: Stress tensor (static) (eV/Ang**3):
siesta:     0.001126    0.000006    0.000001
siesta:     0.000006    0.001123   -0.000001
siesta:     0.000001   -0.000001    0.000034

siesta: Cell volume =        445.782898 Ang**3

siesta: Pressure (static):
siesta:                Solid            Molecule  Units
siesta:          -0.00000829         -0.00000815  Ry/Bohr**3
siesta:          -0.00076132         -0.00074839  eV/Ang**3
siesta:          -1.21976609         -1.19905568  kBar
(Free)E+ p_basis*V_orbitals  =       -3059.117958
(Free)Eharris+ p_basis*V_orbitals  =       -3059.117959

mulliken: Atomic and Orbital Populations:

mulliken: Spin UP

[...]

mulliken: Spin DOWN

Species: Fe
Atom  Qatom  Qorb
   4  2.786   0.217   0.158   0.468   0.495   0.698   0.495   0.468  -0.092
             -0.106  -0.138  -0.106  -0.092   0.106   0.112   0.106
   5  2.786   0.217   0.158   0.468   0.495   0.698   0.495   0.468  -0.092
             -0.106  -0.138  -0.106  -0.092   0.106   0.112   0.106
   6  3.502   0.291   0.127   0.671   0.791   0.528   0.791   0.671  -0.145
             -0.183  -0.096  -0.183  -0.145   0.133   0.119   0.133

[...]

Species: Te
Atom  Qatom  Qorb
               5Pdxy   5Pdyz   5Pdz2   5Pdxz   5Pdx2-y2
   1  3.260   0.954   0.010   0.708   0.640   0.709   0.031   0.047   0.030
              0.024   0.033   0.017   0.033   0.024
   2  3.260   0.954   0.010   0.708   0.640   0.709   0.030   0.047   0.030
              0.024   0.033   0.017   0.033   0.024

mulliken: Qtot =       16.412

Mulliken Atomic Populations:
Atom #   charge [q] valence [e]      Sz [e]  Species
     1    -0.329612    6.329612   -0.190527  Te
     2    -0.329623    6.329623   -0.190551  Te
     3     1.645947    1.354053   -0.279952  Ga
     4    -0.204918    8.204918    2.631999  Fe
     5    -0.204892    8.204892    2.632018  Fe
     6    -0.576902    8.576902    1.572530  Fe
 Total     0.000000                6.175517

siesta: Electric dipole (a.u.)  =   -0.000000    0.000000    0.000011
siesta: Electric dipole (Debye) =   -0.000000    0.000000    0.000028

cite: Please indicate the Siesta version in published work: 5.2.2
cite: This calculation has made use of features in the following articles
cite: which we encourage you to cite in published work.
cite: (Please see "Fe3GaTe2_relax.bib" for a BibTeX file.)
        Primary SIESTA paper
          DOI: www.doi.org/10.1088/0953-8984/14/11/302

>> End of run:  23-APR-2025  15:41:53
Job completed