 NOTE: Siesta V5 introduces some new defaults for basis-set generation
 NOTE: which might lead to slightly different numerical results.
 NOTE: Please see the manual for full details and compatibility measures.

reinit: Reading from standard input
reinit: Dumping input in INPUT_TMP.56057
************************** Dump of input data file ****************************
# FDF file for Fe3GeTe2
# General System descriptors
SystemName Fe3GeTe2                  # Descriptive name of the system
SystemLabel Fe3GeTe2_relax           # Short name for naming files
NumberOfAtoms           6            # Number of atoms
NumberOfSpecies         3            # Number of species
%block Chemical_Species_Label
  1  26  Fe
  2  32  Ge
  3  52  Te
%endblock Chemical_Species_Label
PAO.BasisSize      DZP
PAO.EnergyShift    0.001 Ry
# Lattice, coordinates, k-sampling
%block AtomicCoordinatesAndAtomicSpecies
       2.3659053000      1.7565516000     12.6863155300                 3
       2.3659053200      1.7565515200      7.5354052800                 3
       0.3378719300      2.9274093600     10.1108346300                 2
       0.3378767100      0.5856540700     11.3527281700                 1
       0.3378767400      0.5856540900      8.8689175800                 1
       2.3659139900      1.7565353000     10.1108330000                 1
%endblock AtomicCoordinatesAndAtomicSpecies
%block LatticeVectors
   4.110366   0.000000   0.000000
   -2.055183   3.559681   0.000000
   0.000000   0.000000  30.00000
%endblock LatticeVectors
%block kgrid_Monkhorst_Pack
  30   0   0
  0   30   0
  0   0   1
%endblock kgrid_Monkhorst_Pack
# DFT, Grid, SCF
XC.functional          GGA
XC.authors             PBE
SpinPolarized          .true.       # Spin polarized calculation
MeshCutoff              1200 Ry     # Equivalent planewave cutoff for the grid10
MaxSCFIterations        300         # Maximum number of SCF iterations per step
DM.MixingWeight         0.1         # New DM amount for next SCF cycle
DM.Tolerance            1.d-4       # Tolerance in maximum difference
                                    # between input and output DM
SCF.Mixer.History       4           # Number of SCF steps between pulay mixing
# Eigenvalue problem: order-N or diagonalization
SolutionMethod          diagon      # OrderN or Diagon
ElectronicTemperature   5 K        # Temp. for Fermi smearing
# Molecular dynamics and relaxations
MD.TypeOfRun            CG
MD.Steps                1000
MD.MaxCGDispl           0.05 Ang
MD.MaxForceTol          0.005 eV/Ang
MD.UseSaveXV            T
MD.UseSaveCG            T
# Output options
WriteCoorInitial        .true.
WriteCoorStep           .true.
WriteForces             .true.
WriteKpoints            .false.
WriteEigenvalues        .false.
WriteKbands             .false.
WriteBands              .false.
WriteMullikenPop        1            # Write Mulliken Population Analysis
WriteCoorXmol           .false.
WriteMDCoorXmol         .false.
WriteMDhistory          .false.
WriteCoorXmol           .false.
# Options for saving/reading information
DM.UseSaveDM             T           # Use DM Continuation files
MD.UseSaveXV            .false.      # Use stored positions and velocities
MD.UseSaveCG            .false.      # Use stored positions and velocities
SaveRho                  T           # Write valence pseudocharge at the mesh
SaveDeltaRho             T           # Write RHOscf-RHOatm at the mesh
SaveElectrostaticPotential .false.   # Write the total elect. pot. at the mesh
SaveTotalPotential      .false.      # Write the total pot. at the mesh
WriteSiestaDim          .false.      # Write minimum dim to siesta.h and stop
WriteDenchar             T           # Write information for DENCHAR
Diag.ParallelOverK       T
************************** End of input data file *****************************

reinit: -----------------------------------------------------------------------
reinit: System Name: Fe3GeTe2
reinit: -----------------------------------------------------------------------
reinit: System Label: Fe3GeTe2_relax
reinit: -----------------------------------------------------------------------

NOTE on units for spin output:
{S} is the spin magnetic moment, in units of the Bohr magneton,
assuming a g-factor for the electron spin of exactly 2.
The spin magnetic moment is then numerically equal to the charge inbalance,
in units of electrons, between the spin-up and -down channels.

initatom: Reading input for the pseudopotentials and atomic orbitals ----------
Species number:   1 Atomic number:   26 Label: Fe
Species number:   2 Atomic number:   32 Label: Ge
Species number:   3 Atomic number:   52 Label: Te

Ground state valence configuration (from tables):   4s02  4p00  3d06  4f00
Ground state valence configuration (from tables):   4s02  4p02  4d00  4f00
Ground state valence configuration (from tables):   5s02  5p04  5d00  4f00

---- Processing specs for species: Fe
Reading pseudopotential information in formatted form from:
  Fe.psf

[...]

---- Processing specs for species: Te
Reading pseudopotential information in formatted form from:
  Te.psf

---- Pseudopotential check for Fe

Pseudopotential generated from a fully relativistic atomic calculation
There are spin-orbit semi-local pseudopotentials available

Pseudized shells:
4s( 2.00) rc: 1.72
4p( 0.00) rc: 2.15
3d( 6.00) rc: 0.84
4f( 0.00) rc: 2.00
Valence configuration for ps generation: (assumed as above)

[...]

Pseudized shells:
4s( 2.00) rc: 3.03
4p( 2.00) rc: 2.33
4d( 0.00) rc: 2.48
4f( 0.00) rc: 2.99
Valence configuration for ps generation: (assumed as above)

---- Pseudopotential check for Te

Pseudopotential generated from a fully relativistic atomic calculation
There are spin-orbit semi-local pseudopotentials available

Pseudized shells:
5s( 2.00) rc: 1.40
5p( 4.00) rc: 1.63
5d( 0.00) rc: 1.99
4f( 0.00) rc: 1.99
Valence configuration for ps generation: (assumed as above)
For Fe, standard SIESTA heuristics set lmxkb to 3
 (one more than the basis l, including polarization orbitals).
Use PS.lmax or PS.KBprojectors blocks to override.
For Ge, standard SIESTA heuristics set lmxkb to 3
 (one more than the basis l, including polarization orbitals).
Use PS.lmax or PS.KBprojectors blocks to override.
For Te, standard SIESTA heuristics set lmxkb to 3
 (one more than the basis l, including polarization orbitals).
Use PS.lmax or PS.KBprojectors blocks to override.

<basis_specs>
Fe                   Z=  26    Mass=  55.845        Charge= 0.17977+309
Lmxo=2 Lmxkb= 3    BasisType=split      Semic=F
L=0  Nsemic=0  Cnfigmx=4
          i=1  nzeta=2  polorb=1  (4s)  (to be polarized perturbatively)
            splnorm:   0.15000
               vcte:    40.000
               rinn:  -0.90000
               qcoe:    0.0000
               qyuk:    0.0000
               qwid:   0.10000E-01
                rcs:    0.0000      0.0000
            lambdas:    1.0000      1.0000
L=1  Nsemic=0  Cnfigmx=4
          i=1  nzeta=0  polorb=0  (4p)  (perturbative polarization orbital) (from 4s)
L=2  Nsemic=0  Cnfigmx=3
          i=1  nzeta=2  polorb=0  (3d)
            splnorm:   0.15000
               vcte:    40.000
               rinn:  -0.90000
               qcoe:    0.0000
               qyuk:    0.0000
               qwid:   0.10000E-01
                rcs:    0.0000      0.0000
            lambdas:    1.0000      1.0000
L=0  Nkbl=1  erefs: 0.17977+309
L=1  Nkbl=1  erefs: 0.17977+309
L=2  Nkbl=1  erefs: 0.17977+309
L=3  Nkbl=1  erefs: 0.17977+309
</basis_specs>

Using PAO.SplitTailNorm
atom: Called for Fe                    (Z =  26)
Maximum radius (at nrval) set to   50.00000 8518

read_vps: Pseudopotential generation method:
read_vps: ATM4.2.7  Troullier-Martins
Valence charge in pseudo generation:    8.00000

read_vps: Pseudopotential includes a core correction:
read_vps: Pseudo-core for xc-correction

xc_check: Exchange-correlation functional:
xc_check: GGA Perdew, Burke & Ernzerhof 1996
V l=0 = -2*Zval/r beyond r=  2.7517
V l=1 = -2*Zval/r beyond r=  2.7517
V l=2 = -2*Zval/r beyond r=  2.7517
V l=3 = -2*Zval/r beyond r=  2.7517
All V_l potentials equal beyond r=  2.1408
This should be close to max(r_c) in ps generation
All pots = -2*Zval/r beyond r=  2.7517
Using small-core scheme (local charge) for Vlocal

VLOCAL_FROM_CHLOCAL: 99.0% of the norm of Vloc inside      9.472 Ry
VLOCAL_FROM_CHLOCAL: 99.9% of the norm of Vloc inside     21.586 Ry
atom: Maximum radius for chlocal:    2.57269
atom: Maximum radius for r*vlocal+2*Zval:    2.37889

KBgen: Kleinman-Bylander projectors:
GHOST: No ghost state for L =  0
   l= 0   rc=  2.928296   el= -0.388312   Ekb=  5.219433   kbcos=  0.240863
GHOST: No ghost state for L =  1
   l= 1   rc=  3.005693   el= -0.097563   Ekb=  2.157003   kbcos=  0.224184
GHOST: No ghost state for L =  2
   l= 2   rc=  2.588228   el= -0.553222   Ekb=-34.168208   kbcos= -0.542811
GHOST: No ghost state for L =  3
   l= 3   rc=  3.217894   el=  0.019212   Ekb= -1.637044   kbcos= -0.007020

KBgen: Total number of Kleinman-Bylander projectors:  16
atom: -------------------------------------------------------------------------

atom: SANKEY-TYPE ORBITALS:
atom: Selected multiple-zeta basis: split

SPLIT: Orbitals with angular momentum L= 0

SPLIT: Basis orbitals for state 4s

SPLIT: PAO cut-off radius determined from an
SPLIT: energy shift=  0.001000 Ry
Split based on tail norm

   izeta = 1
                 lambda =    1.000000
                     rc =    8.950534
                 energy =   -0.387036
                kinetic =    0.294112
    potential(screened) =   -0.681149
       potential(ionic) =   -5.918860

   izeta = 2
                 rmatch =    5.732128
              splitnorm =    0.150000
                 energy =   -0.294432
                kinetic =    0.574543
    potential(screened) =   -0.868975
       potential(ionic) =   -6.678390

[...]

SPLIT: Basis orbitals for state 3d

[...]

POLgen: Perturbative polarization orbital with L=  1

POLgen: Polarization orbital for state 4s
Split based on tail norm

   izeta = 1
                     rc =    8.950534
                 energy =   -0.060045
                kinetic =    0.514836
    potential(screened) =   -0.574880
       potential(ionic) =   -5.318417
atom: Total number of Sankey-type orbitals: 15

atm_pop: Valence configuration (for local Pseudopot. screening):
 4s( 2.00)
 4p( 0.00)
 3d( 6.00)
Vna: chval, zval:    8.00000   8.00000

Vna:  Cut-off radius for the neutral-atom potential:   8.950534
comcore: Pseudo-core radius Rcore=  3.744030

atom: _________________________________________________________________________

<basis_specs>
Ge                   Z=  32    Mass=  72.630        Charge= 0.17977+309
Lmxo=2 Lmxkb= 3    BasisType=split      Semic=F
L=0  Nsemic=0  Cnfigmx=4
          i=1  nzeta=2  polorb=0  (4s)
            splnorm:   0.15000
               vcte:    40.000
               rinn:  -0.90000
               qcoe:    0.0000
               qyuk:    0.0000
               qwid:   0.10000E-01
                rcs:    0.0000      0.0000
            lambdas:    1.0000      1.0000
L=1  Nsemic=0  Cnfigmx=4
          i=1  nzeta=2  polorb=1  (4p)  (to be polarized perturbatively)
[...]
   scf:   18    -3115.622677    -3115.622675    -3115.622679  0.000236 -4.687285  0.007398
     spin moment: {S} , |S| = {        0.0        0.0    6.64561 }     6.64561
   scf:   19    -3115.622677    -3115.622676    -3115.622680  0.000102 -4.687414  0.007480
     spin moment: {S} , |S| = {        0.0        0.0    6.64606 }     6.64606
   scf:   20    -3115.622653    -3115.622663    -3115.622667  0.000845 -4.686202  0.009393
     spin moment: {S} , |S| = {        0.0        0.0    6.64249 }     6.64249
   scf:   21    -3115.622706    -3115.622681    -3115.622686  0.001312 -4.688116  0.012749
     spin moment: {S} , |S| = {        0.0        0.0    6.64819 }     6.64819
   scf:   22    -3115.622664    -3115.622680    -3115.622683  0.001081 -4.693580  0.023110
     spin moment: {S} , |S| = {        0.0        0.0    6.65111 }     6.65111
   scf:   23    -3115.622651    -3115.622682    -3115.622686  0.001077 -4.688485  0.013990
     spin moment: {S} , |S| = {        0.0        0.0    6.64956 }     6.64956
   scf:   24    -3115.622714    -3115.622698    -3115.622701  0.000581 -4.691510  0.003646
     spin moment: {S} , |S| = {        0.0        0.0    6.65109 }     6.65109
   scf:   25    -3115.622701    -3115.622700    -3115.622703  0.000248 -4.692920  0.005159
     spin moment: {S} , |S| = {        0.0        0.0    6.65112 }     6.65112
   scf:   26    -3115.622703    -3115.622701    -3115.622704  0.000247 -4.694434  0.005725
     spin moment: {S} , |S| = {        0.0        0.0    6.65123 }     6.65123
   scf:   27    -3115.622701    -3115.622702    -3115.622705  0.000129 -4.693898  0.002472
     spin moment: {S} , |S| = {        0.0        0.0    6.65118 }     6.65118
   scf:   28    -3115.622702    -3115.622702    -3115.622705  0.000093 -4.694431  0.001352
     spin moment: {S} , |S| = {        0.0        0.0    6.65128 }     6.65128
   scf:   29    -3115.622702    -3115.622702    -3115.622705  0.000056 -4.694705  0.001678
     spin moment: {S} , |S| = {        0.0        0.0    6.65138 }     6.65138
   scf:   30    -3115.622702    -3115.622702    -3115.622705  0.000041 -4.694878  0.000876
     spin moment: {S} , |S| = {        0.0        0.0    6.65146 }     6.65146

[...]

        iscf     Eharris(eV)        E_KS(eV)     FreeEng(eV)     dDmax    Ef(eV) dHmax(eV)
   scf:    1    -3115.571015    -3115.621629    -3115.621631  0.008723 -4.691970  0.229882
     spin moment: {S} , |S| = {        0.0        0.0    6.63778 }     6.63778
   scf:    2    -3115.037292    -3115.432545    -3115.432549  0.029186 -4.569848  2.758625
     spin moment: {S} , |S| = {        0.0        0.0    6.69111 }     6.69111
   scf:    3    -3115.623455    -3115.622598    -3115.622600  0.027939 -4.682358  0.112319
     spin moment: {S} , |S| = {        0.0        0.0    6.63778 }     6.63778
   scf:    4    -3115.623131    -3115.623148    -3115.623150  0.001957 -4.681642  0.031896
     spin moment: {S} , |S| = {        0.0        0.0    6.63778 }     6.63778
   scf:    5    -3115.623159    -3115.623167    -3115.623170  0.000311 -4.680863  0.023403
     spin moment: {S} , |S| = {        0.0        0.0    6.63778 }     6.63778
   scf:    6    -3115.623183    -3115.623177    -3115.623180  0.000231 -4.680917  0.012827
     spin moment: {S} , |S| = {        0.0        0.0    6.63778 }     6.63778
   scf:    7    -3115.623193    -3115.623186    -3115.623189  0.000288 -4.680560  0.016350
     spin moment: {S} , |S| = {        0.0        0.0    6.63778 }     6.63778
   scf:    8    -3115.623198    -3115.623193    -3115.623196  0.000324 -4.680300  0.007964
     spin moment: {S} , |S| = {        0.0        0.0    6.63778 }     6.63778
   scf:    9    -3115.623193    -3115.623193    -3115.623196  0.000019 -4.680260  0.007796
     spin moment: {S} , |S| = {        0.0        0.0    6.63778 }     6.63778
   scf:   10    -3115.623193    -3115.623193    -3115.623196  0.000053 -4.680032  0.007809
     spin moment: {S} , |S| = {        0.0        0.0    6.63778 }     6.63778
   scf:   11    -3115.623193    -3115.623193    -3115.623196  0.000038 -4.679891  0.007044
     spin moment: {S} , |S| = {        0.0        0.0    6.63778 }     6.63778
   scf:   12    -3115.623198    -3115.623196    -3115.623199  0.000165 -4.679374  0.007910
     spin moment: {S} , |S| = {        0.0        0.0    6.63778 }     6.63778
   scf:   13    -3115.623201    -3115.623199    -3115.623202  0.000184 -4.678162  0.006855
     spin moment: {S} , |S| = {        0.0        0.0    6.63778 }     6.63778
   scf:   14    -3115.623206    -3115.623202    -3115.623205  0.000387 -4.676647  0.002823
     spin moment: {S} , |S| = {        0.0        0.0    6.63778 }     6.63778
   scf:   15    -3115.623204    -3115.623203    -3115.623206  0.000108 -4.676187  0.003078
     spin moment: {S} , |S| = {        0.0        0.0    6.63778 }     6.63778
   scf:   16    -3115.623203    -3115.623203    -3115.623206  0.000024 -4.676052  0.002694
     spin moment: {S} , |S| = {        0.0        0.0    6.63778 }     6.63778
   scf:   17    -3115.623203    -3115.623203    -3115.623206  0.000048 -4.676187  0.002322
     spin moment: {S} , |S| = {        0.0        0.0    6.63778 }     6.63778
   scf:   18    -3115.623204    -3115.623203    -3115.623206  0.000046 -4.675965  0.002287
     spin moment: {S} , |S| = {        0.0        0.0    6.63778 }     6.63778
   scf:   19    -3115.623203    -3115.623203    -3115.623206  0.000010 -4.676016  0.002365
     spin moment: {S} , |S| = {        0.0        0.0    6.63778 }     6.63778
   scf:   20    -3115.623205    -3115.623204    -3115.623207  0.000198 -4.675052  0.001570
     spin moment: {S} , |S| = {        0.0        0.0    6.63777 }     6.63777
   scf:   21    -3115.623204    -3115.623204    -3115.623207  0.000013 -4.674957  0.001180
     spin moment: {S} , |S| = {        0.0        0.0    6.63777 }     6.63777
   scf:   22    -3115.623204    -3115.623204    -3115.623207  0.000021 -4.674990  0.001283
     spin moment: {S} , |S| = {        0.0        0.0    6.63777 }     6.63777
   scf:   23    -3115.623204    -3115.623204    -3115.623207  0.000005 -4.674978  0.000886
     spin moment: {S} , |S| = {        0.0        0.0    6.63777 }     6.63777

[...]

cgvc: Finished line minimization    4.  Mean atomic displacement =    0.0036

[...]

        iscf     Eharris(eV)        E_KS(eV)     FreeEng(eV)     dDmax    Ef(eV) dHmax(eV)
   scf:    1    -3115.626745    -3115.622985    -3115.622989  0.002384 -4.672923  0.094468
     spin moment: {S} , |S| = {        0.0        0.0    6.63774 }     6.63774
   scf:    2    -3115.476727    -3115.575088    -3115.575092  0.015120 -4.716772  1.660872
     spin moment: {S} , |S| = {        0.0        0.0    6.61915 }     6.61915
   scf:    3    -3115.622675    -3115.623088    -3115.623092  0.015051 -4.675489  0.043338
     spin moment: {S} , |S| = {        0.0        0.0    6.63710 }     6.63710
   scf:    4    -3115.623137    -3115.623136    -3115.623139  0.000468 -4.676074  0.009443
     spin moment: {S} , |S| = {        0.0        0.0    6.63733 }     6.63733
   scf:    5    -3115.623141    -3115.623140    -3115.623144  0.000156 -4.676201  0.002768
     spin moment: {S} , |S| = {        0.0        0.0    6.63734 }     6.63734
   scf:    6    -3115.623142    -3115.623141    -3115.623144  0.000031 -4.676214  0.001374
     spin moment: {S} , |S| = {        0.0        0.0    6.63728 }     6.63728
   scf:    7    -3115.623142    -3115.623142    -3115.623145  0.000032 -4.676172  0.002030
     spin moment: {S} , |S| = {        0.0        0.0    6.63726 }     6.63726
   scf:    8    -3115.623142    -3115.623142    -3115.623146  0.000035 -4.676055  0.001922
     spin moment: {S} , |S| = {        0.0        0.0    6.63720 }     6.63720
   scf:    9    -3115.623143    -3115.623143    -3115.623146  0.000060 -4.675966  0.002431
     spin moment: {S} , |S| = {        0.0        0.0    6.63715 }     6.63715
   scf:   10    -3115.623143    -3115.623143    -3115.623147  0.000036 -4.675918  0.001146
     spin moment: {S} , |S| = {        0.0        0.0    6.63711 }     6.63711
   scf:   11    -3115.623143    -3115.623143    -3115.623147  0.000019 -4.675897  0.000598
     spin moment: {S} , |S| = {        0.0        0.0    6.63709 }     6.63709

[...]

                        Begin CG opt. move =     11

outcoor: Atomic coordinates (Ang):
    2.37890245    1.75963830   12.77330531   3       1  Te
    2.37889808    1.75963535    7.44827338   3       2  Te
    0.32479386    2.94512371   10.11082229   2       3  Ge
    0.32427333    0.57256508   11.35256533   1       4  Fe
    0.32428348    0.57257176    8.86886987   1       5  Fe
    2.38010064    1.75882851   10.11077526   1       6  Fe

superc: Internal auxiliary supercell:     9 x     9 x     1  =      81
superc: Number of atoms, orbitals, and projectors:    486   6804   7776

outcell: Unit cell vectors (Ang):
        4.110366    0.000000    0.000000
       -2.055183    3.559681    0.000000
        0.000000    0.000000   30.000000

outcell: Cell vector modules (Ang)   :    4.110366    4.110366   30.000000
outcell: Cell angles (23,13,12) (deg):     90.0000     90.0000    120.0000
outcell: Cell volume (Ang**3)        :    438.9478
<dSpData1D:S at geom step 11
  <sparsity:sparsity for geom step 11
    nrows_g=84 nrows=22 sparsity=4.3634 nnzs=30788, refcount: 7>
  <dData1D:(new from dSpData1D) n=30788, refcount: 1>
refcount: 1>
new_DM -- step:    12
Re-using DM from previous geometries...
Number of DMs in history: 1
 DM extrapolation coefficients:
1   1.00000
New DM after history re-use:
<dSpData2D:SpM extrapolated using coords
  <sparsity:sparsity for geom step 11
    nrows_g=84 nrows=22 sparsity=4.3634 nnzs=30788, refcount: 9>
  <dData2D:(temp array for extrapolation) n=30788 m=2, refcount: 1>
refcount: 1>
No. of atoms with KB's overlaping orbs in proc 0. Max # of overlaps:      39     568

InitMesh: MESH = 80 x 80 x 640 = 4096000
InitMesh: Mesh cutoff (required, used) =  1200.000  1257.823 Ry
New grid distribution [1]: sub = 2
New grid distribution [2]: sub = 2
New grid distribution [3]: sub = 2
Setting up quadratic distribution...

        iscf     Eharris(eV)        E_KS(eV)     FreeEng(eV)     dDmax    Ef(eV) dHmax(eV)
   scf:    1    -3115.620007    -3115.623132    -3115.623136  0.001795 -4.677082  0.066799
     spin moment: {S} , |S| = {        0.0        0.0    6.63776 }     6.63776
   scf:    2    -3115.556551    -3115.601355    -3115.601359  0.008614 -4.649848  1.112439
     spin moment: {S} , |S| = {        0.0        0.0    6.63778 }     6.63778
   scf:    3    -3115.622829    -3115.623180    -3115.623184  0.008698 -4.675173  0.031815
     spin moment: {S} , |S| = {        0.0        0.0    6.63778 }     6.63778
   scf:    4    -3115.623207    -3115.623207    -3115.623211  0.000327 -4.674707  0.007868
     spin moment: {S} , |S| = {        0.0        0.0    6.63777 }     6.63777
   scf:    5    -3115.623209    -3115.623209    -3115.623213  0.000110 -4.674650  0.001265
     spin moment: {S} , |S| = {        0.0        0.0    6.63777 }     6.63777
   scf:    6    -3115.623210    -3115.623210    -3115.623213  0.000022 -4.674689  0.001016
     spin moment: {S} , |S| = {        0.0        0.0    6.63777 }     6.63777
   scf:    7    -3115.623211    -3115.623211    -3115.623214  0.000084 -4.674823  0.000425
     spin moment: {S} , |S| = {        0.0        0.0    6.63777 }     6.63777

SCF Convergence by DM+H criterion
max |DM_out - DM_in|         :     0.0000838845
max |H_out - H_in|      (eV) :     0.0004254325
SCF cycle converged after 7 iterations

Using DM_out to compute the final energy and forces
No. of atoms with KB's overlaping orbs in proc 0. Max # of overlaps:      39     568

siesta: E_KS(eV) =            -3115.6232

siesta: Atomic forces (eV/Ang):
     1    0.001809   -0.001812    0.000461
     2    0.001856   -0.001782   -0.000917
     3   -0.001357    0.004809   -0.000145
     4   -0.000107   -0.000182    0.000226
     5   -0.000074   -0.000139   -0.000911
     6   -0.002400   -0.001015   -0.000248
   Tot   -0.000272   -0.000122   -0.001534
   Max    0.004809
   Res    0.001616    sqrt( Sum f_i^2 / 3N )
   Max    0.004809    constrained

Stress tensor Voigt[x,y,z,yz,xz,xy] (kbar):        0.89        0.90       -0.04        0.00        0.00       -0.00
(Free)E + p*V (eV/cell)    -3115.7831
Target enthalpy (eV/cell)    -3115.6232

[...]

outcoor: Relaxed atomic coordinates (Ang):
    2.37890245    1.75963830   12.77330531   3       1  Te
    2.37889808    1.75963535    7.44827338   3       2  Te
    0.32479386    2.94512371   10.11082229   2       3  Ge
    0.32427333    0.57256508   11.35256533   1       4  Fe
    0.32428348    0.57257176    8.86886987   1       5  Fe
    2.38010064    1.75882851   10.11077526   1       6  Fe

siesta: Program's energy decomposition (eV):
siesta: Ebs     =      -340.699805
siesta: Eions   =      3310.683873
siesta: Ena     =       501.413910
siesta: Ekin    =      3557.206297
siesta: Enl     =     -2399.101986
siesta: Eso     =         0.000000
siesta: Edftu   =         0.000000
siesta: DEna    =         2.088023
siesta: DUscf   =         0.750798
siesta: DUext   =         0.000000
siesta: Ex      =     -1378.919162
siesta: Ec      =       -88.377217
siesta: Exc     =     -1467.296380
siesta: EbV     =         0.000000
siesta: eta*DQ  =         0.000000
siesta: Emadel  =         0.000000
siesta: Emeta   =         0.000000
siesta: Emolmec =         0.000000
siesta: Ekinion =         0.000000
siesta: Eharris =     -3115.623211
siesta: Etot    =     -3115.623211
siesta: FreeEng =     -3115.623214

siesta: Final energy (eV):
siesta:  Band Struct. =    -340.699805
siesta:       Kinetic =    3557.206297
siesta:       Hartree =   16247.530741
siesta:         Edftu =       0.000000
siesta:       Eso     =       0.000000
siesta:    Ext. field =       0.000000
siesta:         Exch. =   -1378.919162
siesta:         Corr. =     -88.377217
siesta:     Bulk bias =       0.000000
siesta:   Exch.-corr. =   -1467.296380
siesta:  Ion-electron =  -35606.516648
siesta:       Ion-ion =   14153.452779
siesta:       Ekinion =       0.000000
siesta: D3 dispersion =       0.000000
siesta:         Total =   -3115.623211
siesta:         Fermi =      -4.674823

siesta: Stress tensor (static) (eV/Ang**3):
siesta:     0.000558   -0.000003    0.000001
siesta:    -0.000003    0.000562    0.000000
siesta:     0.000001    0.000000   -0.000027

siesta: Cell volume =        438.947753 Ang**3

siesta: Pressure (static):
siesta:                Solid            Molecule  Units
siesta:          -0.00000397         -0.00000408  Ry/Bohr**3
siesta:          -0.00036428         -0.00037492  eV/Ang**3
siesta:          -0.58364106         -0.60069279  kBar
(Free)E+ p_basis*V_orbitals  =       -3107.374429
(Free)Eharris+ p_basis*V_orbitals  =       -3107.374430

mulliken: Atomic and Orbital Populations:

mulliken: Spin UP

[...]

mulliken: Spin DOWN

Species: Fe
Atom  Qatom  Qorb
   4  2.618  -0.050   0.277   0.471   0.469   0.699   0.469   0.471  -0.097
             -0.096  -0.142  -0.096  -0.097   0.111   0.118   0.111
   5  2.618  -0.050   0.277   0.471   0.469   0.699   0.469   0.471  -0.097
             -0.096  -0.142  -0.096  -0.097   0.111   0.118   0.111
   6  3.213  -0.027   0.281   0.656   0.770   0.468   0.771   0.656  -0.136
             -0.175  -0.091  -0.175  -0.136   0.111   0.130   0.111

[...]

Species: Te
Atom  Qatom  Qorb
               5Pdxy   5Pdyz   5Pdz2   5Pdxz   5Pdx2-y2
   1  3.173   0.930   0.016   0.675   0.608   0.676   0.044   0.055   0.044
              0.025   0.028   0.018   0.028   0.025
   2  3.173   0.930   0.016   0.675   0.608   0.676   0.044   0.055   0.044
              0.025   0.028   0.018   0.028   0.025

mulliken: Qtot =       16.681

Mulliken Atomic Populations:
Atom #   charge [q] valence [e]      Sz [e]  Species
     1    -0.248923    6.248923   -0.097559  Te
     2    -0.248923    6.248923   -0.097505  Te
     3     0.482681    3.517319   -0.255041  Ge
     4     0.077345    7.922655    2.687110  Fe
     5     0.077308    7.922692    2.687173  Fe
     6    -0.139488    8.139488    1.713597  Fe
 Total     0.000000                6.637774

siesta: Electric dipole (a.u.)  =   -0.000000   -0.000000   -0.000000
siesta: Electric dipole (Debye) =   -0.000000   -0.000000   -0.000001

cite: Please indicate the Siesta version in published work: 5.2.2
cite: This calculation has made use of features in the following articles
cite: which we encourage you to cite in published work.
cite: (Please see "Fe3GeTe2_relax.bib" for a BibTeX file.)
        Primary SIESTA paper
          DOI: www.doi.org/10.1088/0953-8984/14/11/302

>> End of run:  23-APR-2025  16:03:43
Job completed